# Created by Octave 4.0.0, Thu May 03 08:33:54 2018 CEST <olethros@olethros-OptiPlex-9010>
# name: results
# type: struct
# ndims: 2
 1 5
# length: 3
# name: PU
# type: cell
# rows: 1
# columns: 5
# name: <cell-element>
# type: matrix
# rows: 61
# columns: 2
 0.4302324249662762 0.5054309522452022
 0.5947306119487017 0.5925585839767116
 0.6184124704587657 0.6249988778344882
 0.6335390080842027 0.6285515244939288
 0.6267483675810329 0.6320836337886027
 0.6421211476548184 0.6333718523404849
 0.6385632330721559 0.64084635338929
 0.6403389700690784 0.6403929515832347
 0.6318581647653103 0.6322417348357696
 0.6381179386630952 0.6385558537918985
 0.6322688668246973 0.6336620777044
 0.6348624505210747 0.6348022787319301
 0.6327204194373961 0.6338822481239468
 0.6378461105366779 0.639710327230557
 0.6315453746248623 0.6325749319764357
 0.6334620082602059 0.6343425512074249
 0.6356258392523553 0.6363964734442301
 0.6355044739128534 0.6375969216154287
 0.6300742254241102 0.6367541416651659
 0.6307184337809653 0.6331293772096641
 0.6280480013321215 0.6336357286581729
 0.628635611597595 0.6318056482663615
 0.6339152567780096 0.6363270471566828
 0.6419638151309688 0.6348385368697039
 0.6346528488208398 0.639587933629853
 0.639439410363431 0.634885850563478
 0.6353152313838039 0.6381427991197798
 0.6331840269927219 0.6360201449007267
 0.6351374633878417 0.6341289877301926
 0.6427881934210052 0.6393248359604213
 0.6370426578146378 0.6404224605552736
 0.6417768972176261 0.639637311331387
 0.6337449539595735 0.6351900317289665
 0.6349823593212351 0.6394420583688082
 0.6404015547176563 0.6377572946696063
 0.6375366991736472 0.6322356062672585
 0.6348029176576785 0.6367584290097751
 0.632695020000797 0.642193679176861
 0.6381564192502144 0.6385816091123109
 0.6391619987537135 0.6372024129071326
 0.6411759257943589 0.6361730629734565
 0.637327188328459 0.6336662447408589
 0.6425441913590501 0.6390762643842776
 0.638081991847615 0.6376918132183615
 0.6429718326452998 0.6378951019464586
 0.6402960451363766 0.6418347116679439
 0.6454978405362907 0.6413187665026998
 0.6434418382716239 0.6375543412860769
 0.6440346963812232 0.6421045523284815
 0.6370528806913459 0.6404809417013324
 0.6420985451445556 0.6447684686691891
 0.6417940332417967 0.6388424393861426
 0.6411268785108977 0.6417291845437011
 0.6428337341439843 0.6411781841926351
 0.6361844166656119 0.6445074101033474
 0.6437221317035261 0.6446514827740093
 0.6411753058399746 0.6428047186640872
 0.6442678330785411 0.6446935353989688
 0.6464324875710619 0.6425193350548688
 0.6420559665902855 0.6388127956213787
 0.6381667523652441 0.6391788422145462



# name: <cell-element>
# type: matrix
# rows: 61
# columns: 2
 0.5038291871765102 0.5203085755248015
 0.5729741304994667 0.5887098619653648
 0.5980835426258101 0.6348420115532662
 0.5986335966238149 0.620452478271137
 0.5992692894519969 0.6218418703431751
 0.6165609574160051 0.6252055054473364
 0.6140672236250092 0.6279050407386446
 0.6087870904271402 0.6366534446135311
 0.6187501121843612 0.6320216179927888
 0.6111522198319828 0.6342683162245943
 0.6115926371283318 0.6250632088889846
 0.6086257230389522 0.62303891796311
 0.6089685796947429 0.6235816043402724
 0.6043977847956312 0.6261208184870893
 0.6135251527812371 0.6261810843981478
 0.6066945026060256 0.6225832362183074
 0.6061560259824289 0.6211394749846062
 0.6091910679846709 0.6197196241692858
 0.6021579843934164 0.6263820790783694
 0.6093055135137904 0.6265729679251867
 0.6168447881210202 0.6224580339368528
 0.6119211491494306 0.6180350834871566
 0.6119086916050089 0.6118632636990327
 0.6183577428090601 0.6224830192180808
 0.609929335740965 0.6174810100297622
 0.6099094753084641 0.6161426569248646
 0.615876552624831 0.6248479059219997
 0.6189292013788339 0.6285261221718932
 0.6175242603942186 0.6246961355275067
 0.62397738688416 0.624904239493159
 0.621347445743767 0.6305055088010387
 0.6205292242498828 0.6212580776903165
 0.6210914713342125 0.6207778228517501
 0.6202424858910141 0.6231428265535568
 0.6277814362736848 0.619585324533025
 0.6186942279433716 0.6248761454513561
 0.6257304083125105 0.6200960951233915
 0.6224983193883608 0.6237617139650322
 0.6258959257221596 0.6211578363104893
 0.6199369467852242 0.6243299721979069
 0.6247522272969283 0.6212195627319059
 0.6212041628557324 0.6208056140095026
 0.6197262596518975 0.6233857861996898
 0.6215458638539635 0.6232116351112291
 0.6147662194224818 0.6215970880379266
 0.6172394220647093 0.6228026956908508
 0.625810439038051 0.622942601863359
 0.6257834543449209 0.6226256157827025
 0.6262560268976806 0.6219789924355515
 0.6207647768613032 0.6218607831105648
 0.6229230440802888 0.6252895572085987
 0.6262443442221401 0.6247792374834276
 0.6206775262818539 0.6255204973492278
 0.6199905413908837 0.626430753305003
 0.6223112753680663 0.623436717892092
 0.6292694502552876 0.626067942195269
 0.6303808180389511 0.6245225915372693
 0.6251907618786547 0.6268652937391436
 0.6247925109245476 0.6239540871802151
 0.625845656766633 0.6243267805674351
 0.6227276844319454 0.6292981707359029



# name: <cell-element>
# type: matrix
# rows: 61
# columns: 2
 0.5132913707865013 0.5239934520930201
 0.5139855444563539 0.57465728717154
 0.5491130742880096 0.5944587141954595
 0.5672278371682532 0.6070592259360916
 0.5776597727015839 0.5966906787349217
 0.5723049317575838 0.5937521839922929
 0.5821520492523814 0.6019287356139501
 0.5758954324413212 0.6052718137952134
 0.5789161187652052 0.6018362351460114
 0.5815104310847543 0.6032392390828907
 0.5814822884937695 0.5976236102563616
 0.5794585736193483 0.5963360945340584
 0.571661313546829 0.5906978514218584
 0.5815883901396591 0.586630073076179
 0.5777899288683254 0.5941389085690286
 0.5772596231870277 0.5937030934854802
 0.5745012060334767 0.5978901836552208
 0.5698354517080324 0.593259125173246
 0.5774387795804188 0.593554883314281
 0.582250278576713 0.5887105646994941
 0.5830045790187077 0.597437517977235
 0.581517372420248 0.5962882446105138
 0.5872420606204151 0.5997752084704233
 0.5855125928868835 0.5960599014903384
 0.5864497974202662 0.6034839767837451
 0.5821214874848329 0.5990826259151479
 0.5835806865720701 0.5974208705678392
 0.5878077045819212 0.6047623429582356
 0.5824513204453681 0.6045561169721837
 0.586099989719747 0.6060169505960029
 0.5915468942753468 0.606959354092529
 0.5861570310517578 0.6058070488148936
 0.5852101102494837 0.6077485614321765
 0.5870476343121596 0.6033089049184318
 0.5941171479804583 0.5999995345956183
 0.5834703403494947 0.6054135627861945
 0.5903910932677822 0.6033665224565018
 0.5814127177968174 0.6040088079565845
 0.5819085663597577 0.5965245413274853
 0.5830906444791454 0.6023686787130381
 0.5854531691047552 0.6046437124929086
 0.5861750476124447 0.6019342680922509
 0.5923129771076263 0.5990929631811619
 0.5874636126746691 0.6002396284886211
 0.5882302957942066 0.5977049950648785
 0.5872443007385992 0.5988039653835018
 0.5936111428914216 0.6022720607532452
 0.5837083466656446 0.6015154960208597
 0.5866166872088339 0.5973174756133196
 0.5879283621019252 0.6001304304883303
 0.585939855450092 0.601998799104714
 0.5935275075967535 0.6041936518692196
 0.5766313307178358 0.5993956757003653
 0.5840027877763803 0.6009559421076326
 0.5873754459793804 0.6027493963955896
 0.5814296474679665 0.6045245803435402
 0.5897315732927367 0.6059331713943489
 0.5873701227626892 0.6067884919057542
 0.5897955844164975 0.6053061661453257
 0.5871159227070036 0.6052133002643929
 0.5911031510889309 0.5982501479491104



# name: <cell-element>
# type: matrix
# rows: 61
# columns: 2
 0.5047247762490248 0.5172619970689004
 0.5049838852600607 0.5336788204489656
 0.5109979053785985 0.5490758883647927
 0.5210765112921039 0.5664004830430945
 0.5326975563726465 0.5705517398852813
 0.539953141200037 0.5727330861912748
 0.5506156568637216 0.5715397051640444
 0.5378590178078966 0.5709692875182413
 0.5477494326736495 0.5630214193236235
 0.5370188197036947 0.5647675430879747
 0.5512809852090234 0.5735509919334176
 0.5380728120112273 0.5676985598969277
 0.5377133299929406 0.5598858872839862
 0.5542744272042919 0.5585214166358577
 0.543244527262563 0.5599848838663957
 0.5433241862978482 0.550780576077785
 0.5423976531205755 0.5576028849908056
 0.544699584325204 0.5592521554113487
 0.5440948258531905 0.5693113930328448
 0.5417920174642463 0.5699075618098522
 0.5468253592839369 0.5718028143248536
 0.5388954508450156 0.5743558022158578
 0.5496559472553039 0.5704813594584746
 0.5411717015619701 0.5687321753450655
 0.5526229117147554 0.5722940581519059
 0.5449647558967161 0.5657442498044348
 0.5426504250229042 0.5658076007590896
 0.5578385917385971 0.5683295345763602
 0.5406890246773904 0.5653186091977893
 0.545314106096688 0.5663873885690658
 0.5454877744597472 0.5712183325078513
 0.5527501128789689 0.5668580002343125
 0.5416964483810446 0.5721038978622147
 0.5446879794792453 0.5650749168157659
 0.554384455436119 0.5610685334914071
 0.5469378740957098 0.5614336513622938
 0.5380942068300438 0.5579746389352807
 0.5518289189544442 0.561146212990817
 0.5465670784153688 0.5563275361114541
 0.5406473411580432 0.5565741212384273
 0.5537463615615618 0.5621480908266004
 0.5463414047493974 0.5614059199071935
 0.5439460111257067 0.5611890641170706
 0.5551918314783229 0.5573107948248889
 0.5392658277881522 0.5619413488843391
 0.5420082273057799 0.5608936342048169
 0.5456493292992164 0.5627988865010575
 0.5581810599996869 0.5640463743312518
 0.5460525262736741 0.5648309401131366
 0.5571890028680037 0.5679451857369792
 0.5396315801599564 0.5665853351958131
 0.5355639413127274 0.5660715774158451
 0.5474754662377763 0.564620994753963
 0.5363668526252237 0.5634871406747584
 0.543239612046593 0.5662876621100011
 0.5540196640473382 0.568339384011041
 0.5418544654802349 0.5627804610399212
 0.5535849141868142 0.5658041988197374
 0.5391019321656841 0.5634105746805839
 0.5545694493141056 0.5605764926844243
 0.5408568097376203 0.5675340412073252



# name: <cell-element>
# type: matrix
# rows: 61
# columns: 2
 0.5060864863503656 0.498360503208549
 0.4988145387485363 0.4991127948480183
 0.4986438049104809 0.4953123389654056
 0.4987430428661176 0.4921527713983165
 0.4987599556166977 0.4956233601551445
 0.4987692729886513 0.4998360667429433
 0.4987543182513161 0.502075180679277
 0.4987315088886343 0.5038410223055062
 0.4987675550725733 0.4997959201344391
 0.4987449346022941 0.4999434233636484
 0.4987600414102776 0.5007921843235875
 0.4987732156203484 0.5000063860740489
 0.4987723135140855 0.5014228684599108
 0.4987696214840129 0.5009239312328195
 0.4987597007538474 0.5006348436232612
 0.4987600710044595 0.5003461013116286
 0.4987560869381475 0.5004947711943449
 0.4987682870655278 0.5009283238079593
 0.4987600565505786 0.5009842522015353
 0.4987602663489303 0.5000226106056462
 0.4987582934060888 0.5002954937131028
 0.4987599068377043 0.4995498442578443
 0.4987613210059472 0.499016789637826
 0.4987623237876162 0.498995766790063
 0.4987617939091599 0.4986990478905541
 0.4987602674159564 0.4990113825263687
 0.4987617015652555 0.499255108626915
 0.4987610238008636 0.4986394522133558
 0.4987602856586924 0.497974498827155
 0.4987600577001997 0.4982429001350749
 0.4987601985424546 0.4985334348113003
 0.4987603119678975 0.4979283967495977
 0.4987604514674958 0.4976630552059306
 0.4987605210959447 0.4976479482358329
 0.498760685948511 0.4972426543493275
 0.4987608089290703 0.5069637796470428
 0.498760808662837 0.4943899595345227
 0.4987603543698397 0.4953013195244474
 0.4987608293734381 0.4958459457912647
 0.4987611176941854 0.4967084320830295
 0.4987605213630431 0.4962250512721185
 0.4987607448773993 0.4964195835775448
 0.4987612210486969 0.4969181411209336
 0.4987607646500775 0.4965776545629226
 0.4987611065328006 0.4967890683224536
 0.4987609258901267 0.4970237250959262
 0.4987611808641556 0.4970789294236518
 0.4987611932317055 0.4978862445119573
 0.4987608257866045 0.4976369980856638
 0.4987611449830295 0.4979494398401408
 0.4987610458433164 0.4978005979278354
 0.498761127889819 0.4982015120886001
 0.4987611320720835 0.4982836627902604
 0.4987610599909106 0.4981543758090226
 0.4987612325275771 0.4975997300521793
 0.498761140425057 0.4978172948875421
 0.4987612140538659 0.4986428529533963
 0.4987612370263413 0.4989041460447748
 0.4987612555418262 0.4986822244679503
 0.4987612429622776 0.4970035214534302
 0.4987611514425855 0.4969776707376569





# name: PV
# type: cell
# rows: 1
# columns: 5
# name: <cell-element>
# type: matrix
# rows: 61
# columns: 2
 0.4302324249662762 0.5054309522452022
 0.5947306119487017 0.5925585839767116
 0.6184124704587657 0.6249988778344882
 0.6335390080842027 0.6285515244939288
 0.6267483675810329 0.6320836337886027
 0.6421211476548184 0.6333718523404849
 0.6385632330721559 0.64084635338929
 0.6403389700690784 0.6403929515832347
 0.6318581647653103 0.6322417348357696
 0.6381179386630952 0.6385558537918985
 0.6322688668246973 0.6336620777044
 0.6348624505210747 0.6348022787319301
 0.6327204194373961 0.6338822481239468
 0.6378461105366779 0.639710327230557
 0.6315453746248623 0.6325749319764357
 0.6334620082602059 0.6343425512074249
 0.6356258392523553 0.6363964734442301
 0.6355044739128534 0.6375969216154287
 0.6300742254241102 0.6367541416651659
 0.6307184337809653 0.6331293772096641
 0.6280480013321215 0.6336357286581729
 0.628635611597595 0.6318056482663615
 0.6339152567780096 0.6363270471566828
 0.6419638151309688 0.6348385368697039
 0.6346528488208398 0.639587933629853
 0.639439410363431 0.634885850563478
 0.6353152313838039 0.6381427991197798
 0.6331840269927219 0.6360201449007267
 0.6351374633878417 0.6341289877301926
 0.6427881934210052 0.6393248359604213
 0.6370426578146378 0.6404224605552736
 0.6417768972176261 0.639637311331387
 0.6337449539595735 0.6351900317289665
 0.6349823593212351 0.6394420583688082
 0.6404015547176563 0.6377572946696063
 0.6375366991736472 0.6322356062672585
 0.6348029176576785 0.6367584290097751
 0.632695020000797 0.642193679176861
 0.6381564192502144 0.6385816091123109
 0.6391619987537135 0.6372024129071326
 0.6411759257943589 0.6361730629734565
 0.637327188328459 0.6336662447408589
 0.6425441913590501 0.6390762643842776
 0.638081991847615 0.6376918132183615
 0.6429718326452998 0.6378951019464586
 0.6402960451363766 0.6418347116679439
 0.6454978405362907 0.6413187665026998
 0.6434418382716239 0.6375543412860769
 0.6440346963812232 0.6421045523284815
 0.6370528806913459 0.6404809417013324
 0.6420985451445556 0.6447684686691891
 0.6417940332417967 0.6388424393861426
 0.6411268785108977 0.6417291845437011
 0.6428337341439843 0.6411781841926351
 0.6361844166656119 0.6445074101033474
 0.6437221317035261 0.6446514827740093
 0.6411753058399746 0.6428047186640872
 0.6442678330785411 0.6446935353989688
 0.6464324875710619 0.6425193350548688
 0.6420559665902855 0.6388127956213787
 0.6381667523652441 0.6391788422145462



# name: <cell-element>
# type: matrix
# rows: 61
# columns: 2
 -0.02059489129095049 -0.1997891892484223
 -0.06160313028786907 -0.2533547266229256
 -0.1859528121675798 -0.3541398429196104
 -0.1371200009270269 -0.2536225713335717
 -0.0697966589147197 -0.177314828906686
 -0.1494719066474196 -0.2281353553406253
 -0.07577379986435451 -0.2211364147663057
 -0.05522989763919212 -0.2382421962533231
 -0.08155980422889997 -0.2049673507832344
 -0.08876977939668379 -0.1899331022391812
 -0.139788861624811 -0.2298264744012141
 -0.07024333060681631 -0.227780086446533
 -0.03929731989328311 -0.2119812099161199
 -0.09380086433205881 -0.2366315825120706
 -0.1431302668739413 -0.2065685126931616
 -0.1171210296697779 -0.1615209944087963
 -0.07758429880010898 -0.1999840861542542
 -0.0595732828487423 -0.169936477220885
 -0.02166021121382072 -0.16645551001901
 -0.08455403001013545 -0.2071597539600836
 -0.1513173148867811 -0.233624989734001
 -0.09109576219878557 -0.2155103479307072
 -0.1999342798574851 -0.2488928089046625
 -0.1954491630127752 -0.2179897765109314
 -0.09522877579715772 -0.2277721433157497
 -0.1262549933440352 -0.2416085835125231
 -0.1327325938686075 -0.1960580848439488
 -0.1804252311798548 -0.1732883509620862
 -0.197889757766873 -0.1935193453778364
 -0.1953284709137651 -0.2096169810810019
 -0.1951596623893197 -0.1697890468341863
 -0.1495077110176478 -0.215745043739448
 -0.2178960572341271 -0.2157515481835408
 -0.2037056531659857 -0.2004999862176182
 -0.2132414805393806 -0.2198594995676463
 -0.1807091819655635 -0.2015363036041565
 -0.1860821095125917 -0.2101795634058473
 -0.2277191312577124 -0.1980657817650948
 -0.231736075588979 -0.199986591594229
 -0.2792122860082747 -0.238462368554855
 -0.2126260528451105 -0.2215396776456213
 -0.242580771371772 -0.2416625415955078
 -0.2593249117162278 -0.2019129120027878
 -0.2706816030696897 -0.2634812890810801
 -0.2452834093457403 -0.2601792649805899
 -0.260717608672265 -0.2889391368530199
 -0.2661092773259428 -0.2705241922332648
 -0.2146012846564246 -0.215442497210071
 -0.2294884696830214 -0.2552996326802865
 -0.2496145868717947 -0.2330749791379783
 -0.252207418035285 -0.2234739109777798
 -0.2108422508171695 -0.2579694911448584
 -0.2336532103269203 -0.2519956894709595
 -0.2796774946965659 -0.2229133490771386
 -0.2801378726399986 -0.2399655867892844
 -0.2477948845766652 -0.2505404737367491
 -0.2097929294560911 -0.2603444810015961
 -0.2612431029068611 -0.231277604197425
 -0.2400780254240787 -0.2441636129775745
 -0.2420442783341985 -0.2561923063926096
 -0.2688231719216109 -0.22291718986791



# name: <cell-element>
# type: matrix
# rows: 61
# columns: 2
 -0.1841706150973866 -0.2475811643171709
 -0.2627446457582088 -0.8064299417213172
 -0.386107643006576 -0.8019548298420063
 -0.4689939133625858 -0.845916212107499
 -0.4691561467436889 -0.690298509394822
 -0.4163226608213231 -0.7138150717049372
 -0.4278141685390942 -0.6468974885649807
 -0.3789707154023072 -0.6567232690695126
 -0.3934677297450235 -0.5523600647473357
 -0.3159645375056656 -0.5096349372230743
 -0.4247818392267315 -0.6156383638414635
 -0.3406235609201249 -0.6567519708577565
 -0.2954693013768881 -0.4830123874173929
 -0.3475575918908637 -0.476351059115822
 -0.3290832813059248 -0.5736508981951594
 -0.2864084094323672 -0.5229760222872339
 -0.3391624698091729 -0.6108615150201122
 -0.2979405319818691 -0.5880116747066502
 -0.3196464673032821 -0.5674551467065284
 -0.4167242906140478 -0.690157674746578
 -0.3816294751852498 -0.7116734279914949
 -0.4113051784773375 -0.6006547248317203
 -0.447418278438311 -0.5889444917139089
 -0.3495891952543859 -0.5629906044057427
 -0.3950699628066478 -0.6062557664598853
 -0.2886323510634684 -0.5430381661824684
 -0.4052784923792156 -0.6146107913400858
 -0.3763787981717516 -0.634846191301542
 -0.4655857115843013 -0.6658476371356521
 -0.4467580499317388 -0.6513869760005383
 -0.4627749564006738 -0.6907174427333802
 -0.448317671261482 -0.6711976282094814
 -0.3436388516258398 -0.671056249165361
 -0.4393098197203065 -0.6805515151483332
 -0.5666393747736136 -0.7600599579223715
 -0.5169780432890267 -0.7121220719926493
 -0.5796129461472141 -0.7890117907565246
 -0.4706014588844769 -0.6988567176225502
 -0.4835955335607023 -0.6863488909624026
 -0.5246225936706059 -0.7573696481754906
 -0.6007829412636339 -0.7587715993430098
 -0.544239007956743 -0.7028838458920985
 -0.6915514562013114 -0.8478389645210836
 -0.5769508758554874 -0.8593998896652172
 -0.5926592871048921 -0.82846307177867
 -0.6034007182662654 -0.860822086477697
 -0.7790743141421341 -0.8588716873659386
 -0.7145508522889634 -0.8902376374094717
 -0.6029741077598956 -0.9188302273136693
 -0.6252484943820724 -0.9232235470415067
 -0.5458968155824988 -0.8731737367363963
 -0.6127672479514235 -0.8418155629274489
 -0.6434478977069711 -0.9569784126156744
 -0.6732562298985059 -0.9591315778722762
 -0.6909601089481685 -0.927506864084942
 -0.6266953066811609 -0.9637203584429096
 -0.7022478775606442 -0.9727607318633418
 -0.5729252668929756 -0.9400043738276649
 -0.741881617653017 -0.996302825503165
 -0.6921749079084789 -1.028460646934146
 -0.6498897054229521 -0.9375823396723646



# name: <cell-element>
# type: matrix
# rows: 61
# columns: 2
 -0.178499297932059 -0.6863088297934493
 -0.2518739587189125 -0.9930874151594693
 -0.2876853292896926 -0.8036933617230075
 -0.2824351837297512 -1.061303372561317
 -0.358244554933792 -0.9181922860854941
 -0.3835572700828465 -0.9468321714267141
 -0.4367339893232521 -0.8022313689841233
 -0.3599072538658002 -0.7617654920965888
 -0.3847741317943829 -0.7713138509878733
 -0.2795764199506037 -0.5664501087990933
 -0.3717902731414918 -0.6257282281983848
 -0.3718154083446713 -0.8378672312088085
 -0.3425098249828509 -0.7264317444396347
 -0.4245211125616283 -0.6112083004575894
 -0.3552073423773686 -0.6649015488355637
 -0.3294503870101887 -0.7105491284970522
 -0.3284146578985507 -0.7677075501965874
 -0.3691593010199262 -0.7552467452054824
 -0.2996562533733887 -0.7900841202811432
 -0.2872363147592724 -1.097737293381863
 -0.3138885726656454 -1.058129198452675
 -0.3105437464571912 -0.9296617657043427
 -0.356006047250416 -0.8947801764458259
 -0.3601633792657365 -0.7131128139767915
 -0.3882858600193711 -0.8146954774634334
 -0.3417098258096434 -0.847974340688062
 -0.3705999002467506 -0.7518838924085182
 -0.3928508904808223 -0.9465451432409804
 -0.339982557225282 -0.7140051308427546
 -0.4385466977752843 -0.8632643076895798
 -0.420444083533653 -0.8211331738840817
 -0.3746185293215776 -0.8522764225210587
 -0.3476704289677189 -0.9448233903468034
 -0.389079161571485 -0.8241650376870171
 -0.3836030403856025 -0.7935319585660243
 -0.5104564561622105 -0.7557847703352185
 -0.3842109090764437 -0.9011297263908904
 -0.4521437077501407 -0.8846180181814849
 -0.3867917902081512 -0.8411432096395897
 -0.4233996279187947 -0.9150772431886945
 -0.5026680388067384 -0.7927437255996167
 -0.4077447857565596 -0.8919168277974852
 -0.5067998406761526 -0.8494887003736339
 -0.6437855813869583 -0.8504937729986441
 -0.5088512192540359 -0.8275881203004924
 -0.4342796166910451 -0.908649579815703
 -0.3813660475140406 -0.8765142931596499
 -0.4759085490914131 -1.08106488784565
 -0.4930578395365186 -1.100319155103076
 -0.4672108180045694 -1.041727443736747
 -0.4443120110966293 -1.048136835682942
 -0.4901607540667163 -0.9671744905578255
 -0.5268841455479097 -1.006321248124938
 -0.5331544523890543 -1.043381710983112
 -0.6406377390296636 -1.087381035676763
 -0.687241856708211 -0.9651823688275348
 -0.5364486749647321 -1.017722161113623
 -0.5773352858439091 -1.207933403189393
 -0.4835908952864458 -1.092573572775115
 -0.7092977789754926 -1.019898609709149
 -0.6197906410615012 -0.9744707691622546



# name: <cell-element>
# type: matrix
# rows: 61
# columns: 2
 -0.1906370989849712 -0.6184082721520708
 -0.02032651785661751 -0.2832393580399057
 -0.007184586022708147 -0.24370392119545
 -0.003924808147010351 -0.2263219451768408
 -0.002850031954886635 -0.24927885459622
 -0.002104183336479974 -0.2161152588734146
 -0.001259032698760207 -0.232737600657691
 -0.0007845818844161621 -0.2582410205270362
 -0.0007948525647555803 -0.2027175305470071
 -0.0006897501463479362 -0.1706494810098348
 -0.0005976184590798132 -0.1648872404208755
 -0.0004596849312227484 -0.1268806155026824
 -0.0006629398414091804 -0.1371179549288712
 -0.0007415610336646445 -0.1256142565598898
 -0.0004038186531401971 -0.1152212665388536
 -0.0002017147037369157 -0.1117314362985221
 -0.0001648668799864113 -0.1233893700160346
 -0.0002977443874353639 -0.1287595728549823
 -0.0001192404759112631 -0.1316667701467594
 -8.288359952896915e-05 -0.1447738836943901
 -0.0001112560530114066 -0.1432573823731064
 -8.299381080902487e-05 -0.1401696183693964
 -6.036869483670726e-05 -0.1362771646166029
 -7.217272682236587e-05 -0.1340185138590019
 -6.588329390357761e-05 -0.13358408342119
 -5.421876008435275e-05 -0.1520753094830219
 -7.517507856203329e-05 -0.1424689877771583
 -4.663449854142395e-05 -0.1353240975359461
 -5.648747009379061e-05 -0.1270357351914394
 -4.292101746435714e-05 -0.1199520266213712
 -3.703902119041277e-05 -0.1191938594281783
 -6.184322919003705e-05 -0.1221801481515468
 -4.525277879014855e-05 -0.1218420356241421
 -4.170759286162938e-05 -0.1224977168150751
 -3.324503072836333e-05 -0.3253740684482499
 -2.542813939461652e-05 -0.2557347279952986
 -2.747731360190589e-05 -0.2424344881894265
 -3.00216134774238e-05 -0.2015687297679
 -2.371021381537526e-05 -0.1979927951663994
 -2.549158183200957e-05 -0.1893236800852868
 -2.869640859765409e-05 -0.1998593215244209
 -1.881714585424277e-05 -0.214325296430865
 -1.508050960344257e-05 -0.212542093701748
 -2.617386469080014e-05 -0.2408088971493562
 -1.69956767398984e-05 -0.2407117315304806
 -1.271372628742201e-05 -0.2379052645801884
 -1.183390748749008e-05 -0.2381500440448462
 -1.129980672597137e-05 -0.2289589364921452
 -1.088180342435995e-05 -0.2299018564460904
 -5.927215968321338e-06 -0.2201199111720526
 -7.367451375877116e-06 -0.2143003896298522
 -9.356333905394284e-06 -0.2093360104727531
 -7.337678384058823e-06 -0.2083928378374952
 -7.762590076911027e-06 -0.2132204728271368
 -6.558919524883006e-06 -0.2148277177562719
 -6.301814645027367e-06 -0.2151510345880498
 -6.499764178144263e-06 -0.2134087861991469
 -3.951650247303361e-06 -0.2234000055705695
 -4.863613454530978e-06 -0.2215713720692589
 -5.149183077958369e-06 -0.2086401206087061
 -4.877897447909616e-06 -0.2096842913585069





# name: PF
# type: cell
# rows: 1
# columns: 5
# name: <cell-element>
# type: matrix
# rows: 61
# columns: 2
 2.97798026336327 0.6442158013049002
 3.115843637603965 3.283105993915247
 3.434307422615604 3.367226078687393
 3.465795265418941 3.5375180573726
 3.413085975696455 3.451428852187405
 3.204403564037957 3.404119386801803
 3.228683847026145 3.233107257356525
 3.248959670995338 3.22510442468672
 2.898162940304147 3.384012208836945
 3.234292204012633 3.231840024615366
 3.316561710448651 3.328487372051421
 3.325377756946558 3.334414690403759
 3.39627931848004 3.365888726701458
 3.277678077942757 3.260213519263479
 3.394629425433462 3.410530391866919
 3.344915523762526 3.307258451899513
 3.296458325640907 3.154833816683369
 3.301905607487365 3.182669741811243
 3.070186790885106 3.217924753148255
 3.091250324491388 3.017114442104763
 3.061333493009931 3.342242909876937
 3.266313865899107 3.150676811354579
 3.03715964632497 3.035350622417063
 3.194892781532293 3.185508734798084
 3.157125645102538 3.077867216936689
 3.257885570865251 3.174806703925773
 2.980284925877892 3.103746514076921
 3.035261441974353 3.219523473870074
 3.093598379880925 3.101525475120318
 3.166060416901442 3.019456151965475
 3.117583945288215 3.272246973808635
 3.079897514361647 3.210755916615199
 2.894259178855768 3.17236750428904
 3.202269075685936 3.34904187362585
 3.43367379290582 3.250455796423761
 2.967634653778865 2.997391867593576
 3.210897376112371 3.1642878289891
 3.076919462145626 3.170310010202921
 3.10143944511902 3.070419482634015
 2.975840933527556 3.136039986486828
 3.150646150361165 3.107001094308799
 3.312926085816366 3.126791685004785
 3.18162306554663 3.173125264278483
 3.215828387577014 3.101061722016297
 3.303584440144286 3.100835888879645
 3.022504046172945 3.134403839713217
 3.049742282863199 3.064972778998471
 3.066864069031857 2.987619098884337
 3.227910395696684 3.246665286515126
 3.1055606241701 2.947137937857406
 3.063505447745694 3.096034406635535
 3.357575061428569 3.1354528754609
 3.236939603747005 3.192707609435049
 3.156104096563364 3.252950111822749
 3.20479746153528 3.120234232157831
 3.310703072212061 3.193090246107798
 3.203559627516673 3.182402839236429
 3.233560806731676 3.260066506298514
 3.051322181601368 3.322428040918215
 3.345056701240638 3.355068067740474
 3.30004972812243 3.624206633710702



# name: <cell-element>
# type: matrix
# rows: 61
# columns: 2
 1.593867126693332 2.360082483568093
 1.965334912649876 2.779548492387797
 2.538061876547749 3.32108540633824
 2.344380793579552 2.875847720147698
 2.076994504014869 2.574784926656269
 2.447570498837694 2.78815793770451
 2.145296870332446 2.768260781281157
 2.047280861838189 2.862929118853886
 2.182489553468683 2.715934257111304
 2.188535777082683 2.662537357630508
 2.393933357884239 2.79449552427181
 2.106850491544122 2.780237099675462
 1.984095018657361 2.718669652685297
 2.188396811715129 2.82488878550955
 2.413096525839476 2.70481730396709
 2.288567626497188 2.513833686290107
 2.128805273147722 2.663354769570836
 2.065866335348982 2.538904781391397
 1.893114798035532 2.544968277311148
 2.166132660581913 2.708357919615894
 2.455803623910185 2.801874060746563
 2.200146496243434 2.716146642184299
 2.635463194244967 2.831161026715748
 2.636869880478281 2.739408163697968
 2.210703110411526 2.763531603352285
 2.334748399301533 2.814862304824686
 2.378560033348923 2.658776057141794
 2.578488528855921 2.578731770364024
 2.644131812250148 2.648165788093866
 2.653246044307541 2.713180642803485
 2.64468098678858 2.570672713739862
 2.459618516820239 2.726754408028742
 2.734858642939146 2.725339661289413
 2.675550070336985 2.671428424531143
 2.736310230978577 2.73819397186966
 2.578919411692369 2.680773650770694
 2.621519662987899 2.701006538993564
 2.778371483195932 2.663548268955476
 2.804632079522395 2.663419875308384
 2.976659984388772 2.826839390813141
 2.724760893271227 2.749817398778203
 2.833935574054285 2.829067008410539
 2.896478425820604 2.677809006610221
 2.947364003840649 2.923560061658008
 2.825432295650407 2.905508324036139
 2.894588700883188 3.024164634484632
 2.941868426417924 2.950924574523136
 2.735755501660461 2.729646836188392
 2.796721959425127 2.887135508027801
 2.860752678071088 2.797882265883608
 2.877598804382006 2.769764315536915
 2.722102035935098 2.906215677029716
 2.796645420153243 2.884544249931521
 2.978681602958915 2.770945656223563
 2.987485316664193 2.830172500833414
 2.878987889072524 2.880365721532804
 2.730314171941218 2.914945698618193
 2.920544697263409 2.805706298007131
 2.834689634469957 2.848516713450943
 2.845714083636693 2.897749567272744
 2.94347574098228 2.779563271679349



# name: <cell-element>
# type: matrix
# rows: 61
# columns: 2
 0.8816326009812746 1.019155780727362