# Created by Octave 4.0.0, Fri May 11 19:33:49 2018 CEST <olethros@olethros-OptiPlex-9010>
# name: results
# type: scalar struct
# ndims: 2
 1 1
# length: 3
# name: PU
# type: matrix
# rows: 61
# columns: 2
 0.496447600313151 0.5107909395285734
 0.5691038901795249 0.5939324430992491
 0.5856449982183837 0.6351167947560117
 0.6084913446142934 0.6418573995342437
 0.6136757111720809 0.611991470730466
 0.6150933291304351 0.617894282631304
 0.6082156229072253 0.6270429128093101
 0.6134383972726353 0.6335915220979567
 0.6130486340097511 0.62503590678397
 0.610609980961267 0.6312402028567229
 0.6174957967871106 0.6274192115258996
 0.6186811807094652 0.623407769882402
 0.6005226808459804 0.6203641306035682
 0.611977916268898 0.6218258120388389
 0.6058458701112153 0.6224098698138131
 0.6047378127087107 0.6194398575104878
 0.6066278261992274 0.6179667780745782
 0.6121699802081528 0.6188298064314747
 0.6083409496512001 0.6211368465920629
 0.6101053338406681 0.6204908621178803
 0.6159138430377389 0.6185641847643674
 0.6137206977531411 0.616179771090296
 0.606060948525623 0.6140100219306535
 0.6089250912279369 0.6181567460239282
 0.6180312090781295 0.615879156384785
 0.6090155561788897 0.6164300410370935
 0.6233636282158632 0.6195236877095694
 0.6210657196052198 0.6286972253081888
 0.6253410553897066 0.6230895199090946
 0.6240570816327965 0.6190241121148731
 0.6181878917539718 0.6240631053175281
 0.6236497371032165 0.6217138354802644
 0.6154814538587852 0.6158384691705179
 0.6208539209682452 0.6182265177115022
 0.6227237160542891 0.6302896944861495
 0.6229223972279578 0.6268223644514466
 0.6237075205256963 0.6249614360413593
 0.6199255522929406 0.6243646821944874
 0.6230712423748332 0.6258357644985117
 0.6203538501198544 0.6271873022778165
 0.6208142788254966 0.6248982379455731
 0.6231792664063018 0.6264593957934949
 0.6222241741465816 0.6196986421149349
 0.6208593855051324 0.6233603784626149
 0.6236268667101993 0.6260947117707621
 0.6245272540600579 0.6284082931048539
 0.6232181422346151 0.6293917911581565
 0.6202742074700553 0.6267776029193072
 0.6200688940334557 0.6262699369178208
 0.6277847781943169 0.627216085159311
 0.6245387533126449 0.6262572679429494
 0.6219897441552635 0.6261227162636924
 0.6171094536728712 0.6280139648439671
 0.6258816046619383 0.6281493268307461
 0.627994826502271 0.6292226417974923
 0.62694257288747 0.6295931715670743
 0.6326394543199331 0.6302152649660674
 0.6194216594186969 0.6282444825101691
 0.6224860872557998 0.6267475958801076
 0.6232665808994925 0.6273820466620844
 0.6269449883668939 0.6271935868496137


# name: PV
# type: matrix
# rows: 61
# columns: 2
 -0.4541898990857784 -0.1184599858573476
 -0.09373152161831189 -0.2138675790222871
 -0.2553397272590173 -0.3361163627796451
 -0.1648658453440305 -0.3136505464421122
 -0.1082380480996382 -0.1770249061647172
 -0.1501614754133559 -0.2073952212675914
 -0.05947042614571574 -0.1849951758113493
 -0.1325869897403864 -0.2379916100464523
 -0.1539606095094151 -0.2402510452970865
 -0.08412662059905351 -0.1955490439832737
 -0.1308746839313428 -0.2122698693820471
 -0.09952920789215358 -0.250303097186759
 -0.1022685266678919 -0.2625529997053503
 -0.07273458385129072 -0.2412544799011689
 -0.1018817624065384 -0.2879304548104182
 -0.1044874122898386 -0.2683582413380509
 -0.09237114555758941 -0.2457862113436075
 -0.09081470469554404 -0.2682081448386381
 -0.1003959039721928 -0.2307648715095911
 -0.1053044951677199 -0.2498668381471609
 -0.1196263237565462 -0.2568376015283106
 -0.2002904639288388 -0.2402317000402683
 -0.1723479860734825 -0.2541265702153871
 -0.1636982401342278 -0.229447364183666
 -0.1454792444222594 -0.2461720887400156
 -0.09892687439212461 -0.2431755701540638
 -0.2119241694615812 -0.2500496818171586
 -0.1691733097523681 -0.2076066947015877
 -0.2131269152715918 -0.2472703619688706
 -0.2434751983486556 -0.2761114884263338
 -0.2478644323764523 -0.2646435357592026
 -0.2239394009941282 -0.2744803293663057
 -0.1997798702214492 -0.2676055177057059
 -0.2149595744606586 -0.232048015572107
 -0.2159768996703785 -0.1937358129331879
 -0.2342044568313118 -0.2216867521239398
 -0.2249402780468917 -0.2226471040864274
 -0.2489185675171519 -0.241864386380931
 -0.2144063944976061 -0.2464961821234958
 -0.2747730429151579 -0.2753543353399335
 -0.2944590697427659 -0.2786361358673763
 -0.2793643902094023 -0.2714426983530367
 -0.2532316078388684 -0.2623101087450245
 -0.2821617030012514 -0.3218705638810349
 -0.2499105502219348 -0.3167217572262905
 -0.2731945685321779 -0.3268745166155279
 -0.2634289535112013 -0.3303049880872079
 -0.2549586074779654 -0.2690484469949956
 -0.2569587228818668 -0.2545673039856436
 -0.2013260548802709 -0.2469196161993249
 -0.246989952029777 -0.2477153438536084
 -0.2681472859601439 -0.2690872073066792
 -0.2949522462719044 -0.2968760191183164
 -0.2485494419389985 -0.2955655848434601
 -0.2620096246226687 -0.2630201428954549
 -0.2865586408825581 -0.2862111029286291
 -0.2569557659941684 -0.2695265422864981
 -0.3119003931085844 -0.2564709788361162
 -0.2863147229954882 -0.2752352517076129
 -0.288326717306931 -0.245065590334876
 -0.2245314154842216 -0.2428958039478942


# name: PF
# type: matrix
# rows: 61
# columns: 2
 3.306102397282567 2.006212762015111
 2.082237757011822 2.637267645386896
 2.77829390369122 3.249815835386615
 2.484937415219002 3.18017438437118
 2.273979325914795 2.544074036850267
 2.445925889044729 2.683263732964277
 2.062528573304539 2.621109441673327
 2.370663150779452 2.852741006479679
 2.454988340066914 2.836111901540256
 2.168336425280015 2.675916784503263
 2.375986126086703 2.731337112105887
 2.25416037369701 2.871435698394242
 2.210642149209509 2.911304390632106
 2.126872084211857 2.830495355721192
 2.225064659959799 3.018951428683112
 2.232163087285487 2.931752537883667
 2.18936806082804 2.837045179598165
 2.199768759406635 2.929321998648976
 2.226606464842372 2.786470025814553
 2.251533982192884 2.860939938942284
 2.326246824139401 2.883042960406344
 2.642323948974779 2.809466113431961
 2.507574789870799 2.858536346653509
 2.481568234220722 2.772259694806448
 2.436010604923426 2.832325824114417
 2.222754166105168 2.821992403727536
 2.717787562493915 2.858769790397343
 2.539890397825132 2.716518454730917
 2.728530827255487 2.858350007602766
 2.846072038293012 2.961518290049955
 2.846021404767725 2.930763458989395
 2.766706815286162 2.963062823906016
 2.645563842462152 2.917937478334377
 2.72240006074737 2.782871615422934
 2.732078746844381 2.6658123351912
 2.805585019009121 2.767214101850099
 2.770883673764656 2.765472724469788
 2.855450926947429 2.840551592107186
 2.726839305114924 2.863492021989519
 2.960153722020195 2.982979248193184
 3.040279115447553 2.989239257306225
 2.986995360056515 2.965148980792631
 2.879598953795218 2.908336361324903
 2.991224968520403 3.157563390911984
 2.870522801018337 3.145171164217448
 2.966360036308886 3.192722945776673
 2.923370240748651 3.209395325823301
 2.880657052322028 2.956526596737904
 2.888041573627834 2.897079026696037
 2.688658554104034 2.869326720275233
 2.861576068057043 2.869633179243282
 2.938558376306366 2.954716978017794
 3.031137346106231 3.071545971005167
 2.871842581741809 3.066710319866079
 2.932022977997488 2.939748496974297
 3.027062282192643 3.033623926415739
 2.925741426936473 2.968751964044194
 3.105866550690428 2.910617362874972
 3.012717153749352 2.981183794470775
 3.023106611926202 2.862408501325757
 2.778960627037568 2.853163976340418




# name: options
# type: scalar struct
# ndims: 2
 1 1
# length: 4
# name: model
# type: scalar struct
# ndims: 2
 1 1
# length: 13
# name: X
# type: scalar
141


# name: Y
# type: scalar
2


# name: Z
# type: scalar
12


# name: Pxyz
# type: matrix
# ndims: 3
 141 2 12
 0.0009618257036037913
 0.0009986656418444161
 0.0002618696206911466
 0.0002959971454521863
 7.745410347868224e-05
 0.0002208282181034225
 7.507090029472279e-05
 0.0005421787243507757
 6.255908357893565e-05
 7.646110215203248e-05
 2.703170278102158e-05
 0.0002323623104360467
 2.432853250291942e-05
 2.838328792007266e-05
 6.255908357893565e-05
 2.838328792007266e-05
 6.255908357893565e-05
 2.432853250291942e-05
 1.621902166861295e-05
 2.432853250291942e-05
 1.621902166861295e-05
 2.703170278102158e-05
 0.0001140399961074348
 1.621902166861295e-05
 1.621902166861295e-05
 1.621902166861295e-05
 2.432853250291942e-05
 1.621902166861295e-05
 2.432853250291942e-05
 2.432853250291942e-05
 1.621902166861295e-05
 0.0001064373297002725
 6.255908357893565e-05
 2.703170278102158e-05
 2.703170278102158e-05
 2.432853250291942e-05
 1.621902166861295e-05
 2.838328792007266e-05
 1.621902166861295e-05
 2.973487305912374e-05
 2.703170278102158e-05
 1.621902166861295e-05
 6.255908357893565e-05
 2.432853250291942e-05
 1.621902166861295e-05
 1.621902166861295e-05
 1.621902166861295e-05
 1.621902166861295e-05
 1.621902166861295e-05
 6.255908357893565e-05
 1.621902166861295e-05
 1.621902166861295e-05
 1.621902166861295e-05
 1.621902166861295e-05
 1.621902166861295e-05
 6.951009286548406e-05
 1.621902166861295e-05
 2.432853250291942e-05
 1.621902166861295e-05
 1.621902166861295e-05
 1.621902166861295e-05
 1.621902166861295e-05
 1.621902166861295e-05
 0.003870125855130076
 0.002501847696390091
 0.001004491770572434
 0.003137294597675583
 0.001041246202425681
 0.002533844590131568
 6.255908357893565e-05
 6.951009286548406e-05
 1.621902166861295e-05
 2.703170278102158e-05
 7.87781052475486e-05
 0.0001165742182431556
 1.621902166861295e-05
 1.621902166861295e-05
 6.255908357893565e-05
 6.255908357893565e-05
 7.298559750875827e-05
 1.621902166861295e-05
 6.255908357893565e-05
 0.0004216945633839366
 0.0002046458910539693
 1.621902166861295e-05
 2.432853250291942e-05
 1.621902166861295e-05
 6.951009286548406e-05
 1.621902166861295e-05
 7.507090029472279e-05
 6.255908357893565e-05
 2.432853250291942e-05
 2.432853250291942e-05
 2.703170278102158e-05
 1.621902166861295e-05
 2.432853250291942e-05
 2.919423900350331e-05
 3.081614117036461e-05
 1.621902166861295e-05
 1.621902166861295e-05
 6.951009286548406e-05
 2.432853250291942e-05
 2.432853250291942e-05
 1.621902166861295e-05
 1.621902166861295e-05
 1.621902166861295e-05
 7.298559750875827e-05
 6.255908357893565e-05
 1.621902166861295e-05
 1.621902166861295e-05
 1.621902166861295e-05
 6.951009286548406e-05
 0.0001094783962631374
 1.621902166861295e-05
 1.621902166861295e-05
 1.621902166861295e-05
 2.432853250291942e-05
 7.298559750875827e-05
 1.621902166861295e-05
 1.621902166861295e-05
 2.432853250291942e-05
 1.621902166861295e-05
 1.621902166861295e-05
 0.003042412396577856
 0.002288410363379065
 0.0002362570823061287
 0.0003095906741495391
 0.0009980448706606746
 0.0003462909039610632
 1.621902166861295e-05
 1.621902166861295e-05
 1.621902166861295e-05
 1.621902166861295e-05
 1.621902166861295e-05
 1.621902166861295e-05
 1.621902166861295e-05
 2.432853250291942e-05
 1.621902166861295e-05
 1.621902166861295e-05
 2.432853250291942e-05
 1.621902166861295e-05
 0.000283967588683024
 0.00094559645314737
 0.0001466469875870421
 0.001479985727260932
 0.0001807262414502586
 0.0009227464827893009
 0.0001362397820163488
 7.745410347868224e-05
 2.432853250291942e-05
 0.0001605683145192682
 0.0001013688854288309
 0.0001807262414502586
 6.255908357893565e-05
 0.0001324553436270057
 2.432853250291942e-05
 0.0001324553436270057
 2.432853250291942e-05
 6.255908357893565e-05
 1.621902166861295e-05
 6.255908357893565e-05
 1.621902166861295e-05
 0.0001013688854288309
 0.0001824639937718957
 1.621902166861295e-05
 1.621902166861295e-05
 1.621902166861295e-05
 6.255908357893565e-05
 1.621902166861295e-05
 6.255908357893565e-05
 6.255908357893565e-05
 1.621902166861295e-05
 7.298559750875827e-05
 2.432853250291942e-05
 0.0001013688854288309
 0.0001013688854288309
 6.255908357893565e-05
 1.621902166861295e-05
 0.0001324553436270057
 1.621902166861295e-05
 0.0001784092383547424
 0.0001013688854288309
 1.621902166861295e-05
 2.432853250291942e-05
 6.255908357893565e-05
 1.621902166861295e-05
 1.621902166861295e-05
 1.621902166861295e-05
 1.621902166861295e-05
 1.621902166861295e-05
 2.432853250291942e-05
 1.621902166861295e-05
 1.621902166861295e-05
 1.621902166861295e-05
 1.621902166861295e-05
 1.621902166861295e-05
 6.951009286548406e-05
 1.621902166861295e-05
 6.255908357893565e-05
 1.621902166861295e-05
 1.621902166861295e-05
 1.621902166861295e-05
 1.621902166861295e-05
 1.621902166861295e-05
 0.000304894624950555
 0.0008948606690632657
 0.0008026760723752326
 0.001539055003708349
 0.001047705060448246
 0.002614600398674669
 2.432853250291942e-05
 6.951009286548406e-05
 1.621902166861295e-05
 0.0001013688854288309
 0.0002120948987434001
 0.0002362570823061287
 1.621902166861295e-05
 1.621902166861295e-05
 2.432853250291942e-05
 2.432853250291942e-05
 0.0001064373297002725
 1.621902166861295e-05
 2.432853250291942e-05
 0.0001405648544613122
 0.0002479363680076936
 1.621902166861295e-05
 6.255908357893565e-05
 1.621902166861295e-05
 6.951009286548406e-05
 1.621902166861295e-05
 0.0001362397820163488
 2.432853250291942e-05
 6.255908357893565e-05
 6.255908357893565e-05
 0.0001013688854288309
 1.621902166861295e-05
 6.255908357893565e-05
 0.0001576488906189179
 0.000234202672894771
 1.621902166861295e-05
 1.621902166861295e-05
 6.951009286548406e-05
 6.255908357893565e-05
 6.255908357893565e-05
 1.621902166861295e-05
 1.621902166861295e-05
 1.621902166861295e-05
 0.0001064373297002725
 2.432853250291942e-05
 1.621902166861295e-05
 1.621902166861295e-05
 1.621902166861295e-05
 6.951009286548406e-05
 0.0001094783962631374
 1.621902166861295e-05
 1.621902166861295e-05
 1.621902166861295e-05
 6.255908357893565e-05
 0.0001064373297002725
 1.621902166861295e-05
 1.621902166861295e-05
 6.255908357893565e-05
 1.621902166861295e-05
 1.621902166861295e-05
 0.0002221820153294442
 0.0005759944452042545
 0.0001165742182431556
 0.0001485742478779112
 0.001520618346231425
 0.001746082783797527
 1.621902166861295e-05
 1.621902166861295e-05
 1.621902166861295e-05
 1.621902166861295e-05
 1.621902166861295e-05
 1.621902166861295e-05
 1.621902166861295e-05
 6.255908357893565e-05
 1.621902166861295e-05
 1.621902166861295e-05
 6.255908357893565e-05
 1.621902166861295e-05
 0.006732779925226538
 0.01298265334397741
 0.002880565827602613
 0.002663974309069677
 0.0002323623104360467
 0.001104141090517112
 7.507090029472279e-05
 0.00126508369015181
 6.255908357893565e-05
 0.0002293833064560974
 2.703170278102158e-05
 7.745410347868224e-05
 2.432853250291942e-05
 2.838328792007266e-05
 6.255908357893565e-05
 2.838328792007266e-05
 6.255908357893565e-05
 2.432853250291942e-05
 1.621902166861295e-05
 2.432853250291942e-05
 1.621902166861295e-05
 2.703170278102158e-05
 0.0001140399961074348
 1.621902166861295e-05
 1.621902166861295e-05
 1.621902166861295e-05
 2.432853250291942e-05
 1.621902166861295e-05
 2.432853250291942e-05
 2.432853250291942e-05
 1.621902166861295e-05
 0.0003193119891008174
 6.255908357893565e-05
 2.703170278102158e-05
 2.703170278102158e-05
 2.432853250291942e-05
 1.621902166861295e-05
 2.838328792007266e-05
 1.621902166861295e-05
 2.973487305912374e-05
 2.703170278102158e-05
 1.621902166861295e-05
 0.000187677250736807
 2.432853250291942e-05
 1.621902166861295e-05
 1.621902166861295e-05
 1.621902166861295e-05
 1.621902166861295e-05
 1.621902166861295e-05
 0.000187677250736807
 1.621902166861295e-05
 1.621902166861295e-05
 1.621902166861295e-05
 1.621902166861295e-05
 1.621902166861295e-05
 0.0002085302785964522
 1.621902166861295e-05
 2.432853250291942e-05
 1.621902166861295e-05
 1.621902166861295e-05
 1.621902166861295e-05
 1.621902166861295e-05
 1.621902166861295e-05
 0.008795740579841081
 0.01393886573703051
 0.006361781213625416
 0.01010906037028799
 0.01978367784608794
 0.02425251250554501
 6.255908357893565e-05
 6.951009286548406e-05
 1.621902166861295e-05
 2.703170278102158e-05
 0.0002363343157426458
 0.000582871091215778
 1.621902166861295e-05
 1.621902166861295e-05
 0.000187677250736807
 0.000187677250736807
 7.298559750875827e-05
 1.621902166861295e-05
 6.255908357893565e-05
 0.0007028242723065612
 0.001841813019485723
 1.621902166861295e-05
 2.432853250291942e-05
 1.621902166861295e-05
 6.951009286548406e-05
 1.621902166861295e-05
 0.0002252127008841684
 0.000187677250736807
 2.432853250291942e-05
 2.432853250291942e-05
 2.703170278102158e-05
 1.621902166861295e-05
 2.432853250291942e-05
 2.919423900350331e-05
 3.081614117036461e-05
 1.621902166861295e-05
 1.621902166861295e-05
 0.0002085302785964522
 2.432853250291942e-05
 2.432853250291942e-05
 1.621902166861295e-05
 1.621902166861295e-05
 1.621902166861295e-05
 0.0002189567925262748
 0.000187677250736807
 1.621902166861295e-05
 1.621902166861295e-05
 1.621902166861295e-05
 6.951009286548406e-05
 0.0005473919813156871
 1.621902166861295e-05
 1.621902166861295e-05
 1.621902166861295e-05
 2.432853250291942e-05
 0.0002189567925262748
 1.621902166861295e-05
 1.621902166861295e-05
 2.432853250291942e-05
 1.621902166861295e-05
 1.621902166861295e-05
 0.005070687327629759
 0.0009807472985910277
 0.001181285411530643
 0.002786316067345852
 0.01031313033016031
 0.01212018163863721
 1.621902166861295e-05
 1.621902166861295e-05
 1.621902166861295e-05
 1.621902166861295e-05
 1.621902166861295e-05
 1.621902166861295e-05
 1.621902166861295e-05
 2.432853250291942e-05
 1.621902166861295e-05
 1.621902166861295e-05
 2.432853250291942e-05
 1.621902166861295e-05
 0.00425951383024536
 0.007249572807463169
 0.0007332349379352105
 0.005031951472687168
 0.001626536173052327
 0.007689554023244176
 0.000681198910081744
 0.0002323623104360467
 2.432853250291942e-05
 0.001445114830673414
 0.0003041066562864928
 0.001626536173052327
 6.255908357893565e-05
 0.0009271874053890403
 2.432853250291942e-05
 0.0003973660308810172
 2.432853250291942e-05
 0.000187677250736807
 1.621902166861295e-05
 0.000187677250736807
 1.621902166861295e-05
 0.0001013688854288309
 0.00127724795640327
 1.621902166861295e-05
 1.621902166861295e-05
 1.621902166861295e-05
 0.000187677250736807
 1.621902166861295e-05
 6.255908357893565e-05
 6.255908357893565e-05
 1.621902166861295e-05
 0.0002189567925262748
 2.432853250291942e-05
 0.0003041066562864928
 0.0003041066562864928
 0.000187677250736807
 1.621902166861295e-05
 0.0009271874053890403
 1.621902166861295e-05
 0.001248864668483197
 0.0005068444271441547
 1.621902166861295e-05
 2.432853250291942e-05
 0.000187677250736807
 1.621902166861295e-05
 1.621902166861295e-05
 1.621902166861295e-05
 1.621902166861295e-05
 1.621902166861295e-05
 2.432853250291942e-05
 1.621902166861295e-05
 1.621902166861295e-05
 1.621902166861295e-05
 1.621902166861295e-05
 1.621902166861295e-05
 0.0002085302785964522
 1.621902166861295e-05
 0.000187677250736807
 1.621902166861295e-05
 1.621902166861295e-05
 1.621902166861295e-05
 1.621902166861295e-05
 1.621902166861295e-05
 0.002744051624554995
 0.002088008227814287
 0.001337793453958721
 0.002770299006675029
 0.0157155759067237
 0.05565363705750367
 2.432853250291942e-05
 6.951009286548406e-05
 1.621902166861295e-05
 0.0005068444271441547
 0.002333043886177401
 0.002598827905367415
 1.621902166861295e-05
 1.621902166861295e-05
 2.432853250291942e-05
 2.432853250291942e-05
 0.0003193119891008174
 1.621902166861295e-05
 2.432853250291942e-05
 0.0007028242723065612
 0.002727300048084629
 1.621902166861295e-05
 0.000187677250736807
 1.621902166861295e-05
 0.0002085302785964522
 1.621902166861295e-05
 0.0009536784741144414
 2.432853250291942e-05
 6.255908357893565e-05
 0.000187677250736807
 0.0005068444271441547
 1.621902166861295e-05
 0.000187677250736807
 0.0007882444530945894
 0.003513040093421565
 1.621902166861295e-05
 1.621902166861295e-05
 0.0002085302785964522
 0.000187677250736807
 0.000187677250736807
 1.621902166861295e-05
 1.621902166861295e-05
 1.621902166861295e-05
 0.0005321866485013623
 2.432853250291942e-05
 1.621902166861295e-05
 1.621902166861295e-05
 1.621902166861295e-05
 0.0002085302785964522
 0.0003284351887894122
 1.621902166861295e-05
 1.621902166861295e-05
 1.621902166861295e-05
 6.255908357893565e-05
 0.0005321866485013623
 1.621902166861295e-05
 1.621902166861295e-05
 0.000187677250736807
 1.621902166861295e-05
 1.621902166861295e-05
 0.0006665460459883326
 0.0005759944452042545
 0.0003497226547294667
 0.0004457227436337337
 0.006994844392664557
 0.01990534373529181
 1.621902166861295e-05
 1.621902166861295e-05
 1.621902166861295e-05
 1.621902166861295e-05
 1.621902166861295e-05
 1.621902166861295e-05
 1.621902166861295e-05
 6.255908357893565e-05
 1.621902166861295e-05
 1.621902166861295e-05
 6.255908357893565e-05
 1.621902166861295e-05
 0.006091562789490678
 0.003661774020096193
 0.001833087344838026
 0.003847962890878422
 7.745410347868224e-05
 0.001104141090517112
 7.507090029472279e-05
 0.0005421787243507757
 6.255908357893565e-05
 7.646110215203248e-05
 2.703170278102158e-05
 7.745410347868224e-05
 2.432853250291942e-05
 2.838328792007266e-05
 6.255908357893565e-05
 2.838328792007266e-05
 0.000187677250736807
 2.432853250291942e-05
 1.621902166861295e-05
 2.432853250291942e-05
 1.621902166861295e-05
 2.703170278102158e-05
 0.0001140399961074348
 1.621902166861295e-05
 1.621902166861295e-05
 1.621902166861295e-05
 2.432853250291942e-05
 1.621902166861295e-05
 2.432853250291942e-05
 2.432853250291942e-05
 1.621902166861295e-05
 0.0001064373297002725
 0.000187677250736807
 2.703170278102158e-05
 2.703170278102158e-05
 2.432853250291942e-05
 1.621902166861295e-05
 2.838328792007266e-05
 1.621902166861295e-05
 2.973487305912374e-05
 2.703170278102158e-05
 1.621902166861295e-05
 6.255908357893565e-05
 2.432853250291942e-05
 1.621902166861295e-05
 1.621902166861295e-05
 1.621902166861295e-05
 1.621902166861295e-05
 1.621902166861295e-05
 6.255908357893565e-05
 1.621902166861295e-05
 1.621902166861295e-05
 1.621902166861295e-05
 1.621902166861295e-05
 1.621902166861295e-05
 6.951009286548406e-05
 1.621902166861295e-05
 2.432853250291942e-05
 1.621902166861295e-05
 1.621902166861295e-05
 1.621902166861295e-05
 1.621902166861295e-05
 1.621902166861295e-05
 0.01090671831900294
 0.01393886573703051
 0.006361781213625416
 0.01010906037028799
 0.007982887551930221
 0.01773691213092098
 6.255908357893565e-05
 6.951009286548406e-05
 1.621902166861295e-05
 2.703170278102158e-05
 7.87781052475486e-05
 0.0001165742182431556
 1.621902166861295e-05
 1.621902166861295e-05
 6.255908357893565e-05
 6.255908357893565e-05
 0.0002189567925262748
 1.621902166861295e-05
 6.255908357893565e-05
 0.0001405648544613122
 0.0006139376731619078
 1.621902166861295e-05
 2.432853250291942e-05
 1.621902166861295e-05
 6.951009286548406e-05
 1.621902166861295e-05
 7.507090029472279e-05
 6.255908357893565e-05
 2.432853250291942e-05
 2.432853250291942e-05
 2.703170278102158e-05
 1.621902166861295e-05
 2.432853250291942e-05
 2.919423900350331e-05
 3.081614117036461e-05
 1.621902166861295e-05
 1.621902166861295e-05
 6.951009286548406e-05
 2.432853250291942e-05
 2.432853250291942e-05
 1.621902166861295e-05
 1.621902166861295e-05
 1.621902166861295e-05
 7.298559750875827e-05
 6.255908357893565e-05
 1.621902166861295e-05
 1.621902166861295e-05
 1.621902166861295e-05
 0.0002085302785964522
 0.0001094783962631374
 1.621902166861295e-05
 1.621902166861295e-05
 1.621902166861295e-05
 2.432853250291942e-05
 7.298559750875827e-05
 1.621902166861295e-05
 1.621902166861295e-05
 2.432853250291942e-05
 1.621902166861295e-05
 1.621902166861295e-05
 0.009803328833417535
 0.01078822028450131
 0.002126313740755158
 0.006501404157140322
 0.008982403835946073
 0.01073501802279296
 1.621902166861295e-05
 1.621902166861295e-05
 1.621902166861295e-05
 1.621902166861295e-05
 1.621902166861295e-05
 1.621902166861295e-05
 1.621902166861295e-05
 2.432853250291942e-05
 1.621902166861295e-05
 1.621902166861295e-05
 2.432853250291942e-05
 1.621902166861295e-05
 0.001987773120781168
 0.00220639172401053
 0.0001466469875870421
 0.002663974309069677
 0.0001807262414502586
 0.002153075126508369
 0.0004087193460490463
 7.745410347868224e-05
 2.432853250291942e-05
 0.0001605683145192682
 0.0003041066562864928
 0.0005421787243507757
 6.255908357893565e-05
 0.0001324553436270057
 2.432853250291942e-05
 0.0006622767181350288
 2.432853250291942e-05
 6.255908357893565e-05
 1.621902166861295e-05
 6.255908357893565e-05
 1.621902166861295e-05
 0.0005068444271441547
 0.0001824639937718957
 1.621902166861295e-05
 1.621902166861295e-05
 1.621902166861295e-05
 6.255908357893565e-05
 1.621902166861295e-05
 0.000187677250736807
 0.000187677250736807
 1.621902166861295e-05
 7.298559750875827e-05
 2.432853250291942e-05
 0.0003041066562864928
 0.0003041066562864928
 6.255908357893565e-05
 1.621902166861295e-05
 0.0001324553436270057
 1.621902166861295e-05
 0.0001784092383547424
 0.0001013688854288309
 1.621902166861295e-05
 2.432853250291942e-05
 6.255908357893565e-05
 1.621902166861295e-05
 1.621902166861295e-05
 1.621902166861295e-05
 1.621902166861295e-05
 1.621902166861295e-05
 2.432853250291942e-05
 1.621902166861295e-05
 1.621902166861295e-05
 1.621902166861295e-05
 1.621902166861295e-05
 1.621902166861295e-05
 6.951009286548406e-05
 1.621902166861295e-05
 6.255908357893565e-05
 1.621902166861295e-05
 1.621902166861295e-05
 1.621902166861295e-05
 1.621902166861295e-05
 1.621902166861295e-05
 0.003963630124357215
 0.00626402468344286
 0.002943145598709187
 0.004617165011125048
 0.009429345544034217
 0.01456705936404458
 2.432853250291942e-05
 6.951009286548406e-05
 1.621902166861295e-05
 0.0001013688854288309
 0.0006362846962302003
 0.0007087712469183859
 1.621902166861295e-05
 1.621902166861295e-05
 2.432853250291942e-05
 2.432853250291942e-05
 0.0003193119891008174
 1.621902166861295e-05
 2.432853250291942e-05
 0.0001405648544613122
 0.001239681840038468
 1.621902166861295e-05
 6.255908357893565e-05
 1.621902166861295e-05
 6.951009286548406e-05
 1.621902166861295e-05
 0.0001362397820163488
 2.432853250291942e-05
 0.000187677250736807
 6.255908357893565e-05
 0.0001013688854288309
 1.621902166861295e-05
 6.255908357893565e-05
 0.0001576488906189179
 0.000702608018684313
 1.621902166861295e-05
 1.621902166861295e-05
 6.951009286548406e-05
 6.255908357893565e-05
 6.255908357893565e-05
 1.621902166861295e-05
 1.621902166861295e-05
 1.621902166861295e-05
 0.0001064373297002725
 2.432853250291942e-05
 1.621902166861295e-05
 1.621902166861295e-05
 1.621902166861295e-05
 6.951009286548406e-05
 0.0001094783962631374
 1.621902166861295e-05
 1.621902166861295e-05
 1.621902166861295e-05
 6.255908357893565e-05
 0.0001064373297002725
 1.621902166861295e-05
 1.621902166861295e-05
 6.255908357893565e-05
 1.621902166861295e-05
 1.621902166861295e-05
 0.001999638137964997
 0.0005759944452042545
 0.0003497226547294667
 0.0004457227436337337
 0.002737113023216566
 0.008730413918987635
 1.621902166861295e-05
 1.621902166861295e-05
 1.621902166861295e-05
 1.621902166861295e-05
 1.621902166861295e-05
 1.621902166861295e-05
 1.621902166861295e-05
 0.000187677250736807
 1.621902166861295e-05
 1.621902166861295e-05
 6.255908357893565e-05
 1.621902166861295e-05
 0.001603042839339652
 0.0003328885472814721
 0.0002618696206911466
 0.001479985727260932
 7.745410347868224e-05
 0.001104141090517112
 0.0002252127008841684
 0.0001807262414502586
 6.255908357893565e-05
 7.646110215203248e-05
 2.703170278102158e-05
 7.745410347868224e-05
 2.432853250291942e-05
 2.838328792007266e-05
 6.255908357893565e-05
 2.838328792007266e-05
 6.255908357893565e-05
 2.432853250291942e-05
 1.621902166861295e-05
 2.432853250291942e-05
 1.621902166861295e-05
 2.703170278102158e-05
 0.0003421199883223044
 1.621902166861295e-05
 1.621902166861295e-05
 1.621902166861295e-05
 2.432853250291942e-05
 1.621902166861295e-05
 2.432853250291942e-05
 2.432853250291942e-05
 1.621902166861295e-05
 0.0001064373297002725
 6.255908357893565e-05
 2.703170278102158e-05
 2.703170278102158e-05
 2.432853250291942e-05
 1.621902166861295e-05
 2.838328792007266e-05
 1.621902166861295e-05
 2.973487305912374e-05
 2.703170278102158e-05
 1.621902166861295e-05
 6.255908357893565e-05
 2.432853250291942e-05
 1.621902166861295e-05
 1.621902166861295e-05
 1.621902166861295e-05
 1.621902166861295e-05
 1.621902166861295e-05
 6.255908357893565e-05
 1.621902166861295e-05
 1.621902166861295e-05
 1.621902166861295e-05
 1.621902166861295e-05
 1.621902166861295e-05
 6.951009286548406e-05
 1.621902166861295e-05
 2.432853250291942e-05
 1.621902166861295e-05
 1.621902166861295e-05
 1.621902166861295e-05
 1.621902166861295e-05
 1.621902166861295e-05
 0.005277444347904648
 0.003216661323930117
 0.003683136492098925
 0.005926000906720544
 0.002429574472326589
 0.004705711381672912
 6.255908357893565e-05
 0.0002085302785964522
 1.621902166861295e-05
 2.703170278102158e-05
 7.87781052475486e-05
 0.0001165742182431556
 1.621902166861295e-05
 1.621902166861295e-05
 6.255908357893565e-05
 6.255908357893565e-05
 7.298559750875827e-05
 1.621902166861295e-05
 6.255908357893565e-05
 0.0001405648544613122
 0.0002046458910539693
 1.621902166861295e-05
 2.432853250291942e-05
 1.621902166861295e-05
 6.951009286548406e-05
 1.621902166861295e-05
 7.507090029472279e-05
 6.255908357893565e-05
 2.432853250291942e-05
 2.432853250291942e-05
 2.703170278102158e-05
 1.621902166861295e-05
 2.432853250291942e-05
 2.919423900350331e-05
 3.081614117036461e-05
 1.621902166861295e-05
 1.621902166861295e-05
 6.951009286548406e-05
 2.432853250291942e-05
 2.432853250291942e-05
 1.621902166861295e-05
 1.621902166861295e-05
 1.621902166861295e-05
 7.298559750875827e-05
 6.255908357893565e-05
 1.621902166861295e-05
 1.621902166861295e-05
 1.621902166861295e-05
 6.951009286548406e-05
 0.0001094783962631374
 1.621902166861295e-05
 1.621902166861295e-05
 1.621902166861295e-05
 2.432853250291942e-05
 7.298559750875827e-05
 1.621902166861295e-05
 1.621902166861295e-05
 2.432853250291942e-05
 1.621902166861295e-05
 1.621902166861295e-05
 0.002366320752893888
 0.002288410363379065
 0.0007087712469183859
 0.0009287720224486174
 0.0009980448706606746
 0.001731454519805316
 1.621902166861295e-05