# Created by Octave 4.0.0, Sat May 12 06:40:01 2018 CEST <olethros@olethros-OptiPlex-9010>
# name: results
# type: struct
# ndims: 2
 1 5
# length: 3
# name: PU
# type: cell
# rows: 1
# columns: 5
# name: <cell-element>
# type: matrix
# rows: 6001
# columns: 2
 0.5320949262631155 0.5215842506129199
 0.511213181347404 0.5320568768893609
 0.4960911334714475 0.5335573555979886
 0.502571994879066 0.5034674608985992
 0.5143342010663829 0.5042059977233798
 0.5043846813006405 0.467041670335373
 0.4759882341266952 0.5488156018714722
 0.4812192549517365 0.5442927183135753
 0.470648591836311 0.5354168337241914
 0.4696981958356351 0.5457473835058825
 0.4696517693578922 0.5500006417909781
 0.5259100681602618 0.5389208938470744
 0.4877343077939258 0.5296170391284442
 0.4794515690372543 0.5547880180667957
 0.4784986849480706 0.5692754927575611
 0.4790381983082767 0.5698925167630963
 0.5464080735259997 0.5798864521424806
 0.5011931710412627 0.5593750785583208
 0.4674588342125409 0.5713415454471937
 0.5319803735649786 0.5763744698573897
 0.521433585299216 0.5591468170700665
 0.510550521719597 0.5788791023828063
 0.5217728659356515 0.56470634641909
 0.5289060421285418 0.5709470823395995
 0.4992674138958326 0.5650174222290207
 0.4778526151463183 0.5581140535099088
 0.532852326105381 0.573160079090316
 0.5281065210846591 0.5866699214933149
 0.512400470179454 0.5591683417967893
 0.5471945673398821 0.5888903142775097
 0.5154765256262539 0.5555921900598001
 0.5147749221365214 0.521349628891039
 0.5089803801972314 0.5660960006405854
 0.5327261236799831 0.5289561411707638
 0.5220304484908498 0.5638736392626272
 0.5269029080980188 0.5600845232830588
 0.537762513998353 0.5491430139583056
 0.5607893038971566 0.5553981702099112
 0.5258271313281493 0.53151989415463
 0.5325397991600636 0.5456945367559745
 0.5466560246786888 0.551610197503526
 0.5301564034755715 0.5424096823141167
 0.5307669318586117 0.5500965699903511
 0.5503458159248256 0.5711896022076689
 0.5229450579626151 0.5517529987791693
 0.5448517475481456 0.5567985452667669
 0.5295617952017699 0.5269265287081832
 0.5371063768700911 0.5329583583465846
 0.5427858141609876 0.5436914076017364
 0.5623307257922229 0.5255009530865985
 0.5511992634871774 0.5152035297451023
 0.5362970335261363 0.5236563580888046
 0.5184088711761843 0.5360752381950603
 0.5618424949005469 0.5296993597718564
 0.5389708583015099 0.5206124509465181
 0.5387539962361776 0.535009018927241
 0.5457919824286852 0.5451417230672223
 0.535211902683515 0.5020673339120025
 0.5248151931728913 0.5271173583788133
 0.5457233211058171 0.530739255518071
 0.5550969503219334 0.5298839393884213
 0.5253949570126257 0.5094449531071508
 0.5683003817173122 0.5262933123054225
 0.5341272328640989 0.512871707652844
 0.5604138227024004 0.5173051564329467
 0.5409997846113095 0.5198982426365804
 0.5580238659037167 0.5181016263847261
 0.563499198470972 0.5267143714819498
 0.5426098978901538 0.5463355803462768
 0.5563273846873056 0.5242683982586994
 0.5685134883760037 0.5217071986164808
 0.5470290633719123 0.5380381720159698
 0.566472360401473 0.5146511558155589
 0.564917105853779 0.5260245397586737
 0.5644846259312986 0.5287129713485934
 0.546995943219865 0.5186586136061403
 0.5525550756194012 0.5504685456806434
 0.564318430598821 0.5252866226083363
 0.5459659943865616 0.535996209189421
 0.561575374016394 0.5203813487549052
 0.5523100686113079 0.5215902939963805
 0.5620690213991775 0.53730647589724
 0.5493818681673662 0.5298809434593437
 0.5575801467813174 0.5393257461058174
 0.5597278258651622 0.5192961203197596
 0.5502919482864332 0.5236933234417899
 0.5499392026607648 0.5295473509362468
 0.5604335733059357 0.5227040082255446
 0.5509484458941293 0.5220225679000133
 0.5600938454637485 0.5250640152350207
 0.554470859315478 0.5373649212794211
 0.557680780194057 0.5085027891452526
 0.5374367145137003 0.5292344759689774
 0.5397445348160266 0.5349255144517111
 0.5591879514044579 0.5254708620570943
 0.5504118540959907 0.5211593405611835
 0.5527449394553129 0.5165794521530118
 0.5592602710122107 0.5132468191348698
 0.5597496728457999 0.5231790510661566
 0.5511187771112706 0.5416963209995267
 0.5472482688115122 0.5242572039405081
 0.5488365440449106 0.537494711612152
 0.5506831253558528 0.5512007017441772
 0.5620408247046015 0.5391582887873478
 0.5323413341176811 0.5303480530215315
 0.542564645863988 0.5267756197759978
 0.5450763107114798 0.5342729285083587
 0.5462790826467132 0.5224195538924391
 0.5468143442093655 0.532413459138662
 0.5493657490626283 0.5450462296470717
 0.5448250983146135 0.5405854846345695
 0.5407373392622855 0.5354985614502599
 0.5533403209149457 0.5244132115368969
 0.5413254032529651 0.5380011411641137
 0.5627328563337132 0.5309712219342166
 0.5516618975777388 0.5250692231973536
 0.5589231929089394 0.5176400389313768
 0.5367009666238518 0.5208364616120881
 0.5381414150918848 0.5209718998634459
 0.5641880445073009 0.5295257295285729
 0.555778039267708 0.5259160365322615
 0.5581652356720648 0.523646489887199
 0.5470776523894886 0.5244460247864006
 0.5443015000135204 0.5172709372113971
 0.5587176516688872 0.5315897357373984
 0.5886540171625532 0.5300930804567862
 0.5746525391021069 0.5312561650733348
 0.5737586499502297 0.5258608179365152
 0.5820687181972987 0.5264910110186684
 0.5815623577644148 0.5296988699752883
 0.5607604629646525 0.5311911246240023
 0.5782793016906134 0.5321394883461756
 0.5412432061576283 0.5196414041208427
 0.5484431913531143 0.5273261119492199
 0.5515140621126899 0.5315523705358837
 0.5753969687396702 0.5218208386791018
 0.5821125095635129 0.5319003881550726
 0.559824795430982 0.5214894488831485
 0.5673504523917621 0.5362039119082395
 0.5479619893064055 0.5318135807271727
 0.5384144013527319 0.5431335101031891
 0.5819246191853238 0.5353193083205465
 0.5769200436829591 0.5448942706419949
 0.5716437070660393 0.5311842261788453
 0.5685714658161134 0.5294873577488738
 0.5643660799343546 0.5288042113900517
 0.5606168252305342 0.530738150215322
 0.5686518341587147 0.5307981472636499
 0.5537264516314766 0.5319765405663637
 0.5527679315663792 0.5198377359035908
 0.583661460680491 0.5179635405517188
 0.5831946750122112 0.5334380699192476
 0.5787314442053431 0.5334447932081995
 0.5453510723943472 0.5174326671480057
 0.5263244864514355 0.5207776413909276
 0.560210098373046 0.5142205141621196
 0.5584850305356229 0.5202937836274897
 0.5759710958531987 0.5312318825175013
 0.5718309140389352 0.5360354354097294
 0.5486928901828688 0.5089616867818132
 0.5770856037108196 0.5205535231619521
 0.558403377421932 0.5153925099956708
 0.5634176320475869 0.5251505966666927
 0.5468124720008033 0.5247125396672353
 0.5770943957688391 0.5254908320197003
 0.5444903183307952 0.5213976305924003
 0.5638616813600609 0.5279345999470103
 0.5814807738200513 0.5155742247447642
 0.5846159473289291 0.5251302115947409
 0.5745676432473319 0.5184449205357712
 0.5841675055334704 0.5148100350717592
 0.5785713553230863 0.5354279785939524
 0.5925816245430654 0.5234724249794037
 0.5824214229226811 0.5309200439326413
 0.5896474761152969 0.5113433581794214
 0.5962289269894203 0.5252391359473689
 0.5888688097758146 0.5319533179188797
 0.5825670893751163 0.5200468330938737
 0.5691546488459173 0.5221725107789249
 0.5895480385644333 0.5380930791806444
 0.5881895958790065 0.5309951239237823
 0.5820638645834145 0.5134481526640901
 0.5900606055675031 0.5370368982626103
 0.588796156267569 0.5235885448929959
 0.5970726546409431 0.5231661753906567
 0.5792084219745072 0.52248738735958
 0.5959601486101674 0.5224255517475372
 0.6003672944393932 0.5317870630515305
 0.5856006072427464 0.5300804151986065
 0.5937332249847711 0.5279041792253105
 0.5656863856226805 0.5285279777324327
 0.5916444565541794 0.521571858638699
 0.5895464728626517 0.5048397408099675
 0.5862318059166489 0.525659169912381
 0.5767286445890292 0.5073978959275265
 0.5703958024844682 0.5373491194081773
 0.5748289389637019 0.5169861323093313
 0.5929913226402864 0.5325732348175164
 0.5508273171187122 0.5168106759030939
 0.5689096672318494 0.5263093069039549
 0.5451472863811896 0.5072282065761771
 0.5756409739306008 0.5275218414925891
 0.5642001320877906 0.5289213258537142
 0.5512136205388437 0.513861829345912
 0.5895980266410895 0.5309047719158468
 0.565308397925904 0.5303601392947357
 0.5852652762971541 0.5225652535173683
 0.568176712117579 0.526256095555214
 0.5550180370720729 0.5221029736021161
 0.5673353245304092 0.51342006575181
 0.5736938343335104 0.5316737985594412
 0.5788839370413933 0.5196518670834096
 0.5755295011437301 0.5108175381583989
 0.5721374087864131 0.5354302722237206
 0.5618903116658599 0.5231614178663075
 0.5935930513216534 0.5136681025047446
 0.5567306812915753 0.5265617141216796
 0.5574907085358149 0.5262574398189814
 0.5804593342916423 0.5105531898498916
 0.5641001331609361 0.4987647605584128
 0.568745095622063 0.5122938689159147
 0.5670461398889065 0.5017615526807718
 0.5637138127773091 0.526023243283652
 0.5561951833718268 0.5309985778755371
 0.5475827430692092 0.5280070117145305
 0.5783063616983118 0.5071187079489082
 0.5471432996892193 0.5162448983231125
 0.5502968501468161 0.5211128364089
 0.5639013994457824 0.5160929271316049
 0.5628324023679396 0.5113128020687294
 0.5662670015653317 0.511440739512911
 0.5822241902700829 0.5208963239517982
 0.5862294456721326 0.5076724044054408
 0.5621663885133611 0.527343893304446
 0.5620786962425058 0.5198898376091167
 0.5516314218655725 0.5116101552809206
 0.5831432159713924 0.5214744593161278
 0.5969417497176217 0.5301636153777145
 0.5578044571127709 0.5362935432491569
 0.5991238007371159 0.5322802050439452
 0.5822371479356407 0.523888381931425
 0.5676331037504382 0.5196305730540349
 0.5787153347574 0.5251020049725177
 0.5499350939475658 0.5128323271257632
 0.5681102286357116 0.5331099645946322
 0.583843074439782 0.5278698289357827
 0.5587738248809772 0.5175802488212726
 0.552743100239858 0.5244209709290991
 0.5872591283510209 0.5183402826038443
 0.5616974753587007 0.5329334756485945
 0.5827333950257748 0.515383587865182
 0.5588610910401286 0.5372699043194988
 0.5502031565318908 0.5087199148828322
 0.5640452276312958 0.5080642225345096
 0.5789914420823504 0.5345870850466136
 0.579355101709582 0.5266313227525992
 0.5632902263465143 0.5213710274032776
 0.5492381964225623 0.5049897341447734
 0.5737883236591176 0.5263944677588828
 0.5717640007987768 0.5307821317488854
 0.584177137304561 0.5111103910307955
 0.568513292167669 0.509519794565787
 0.5680262589661257 0.5140879506751905
 0.560570418163806 0.5199561710908867
 0.5445759591954797 0.5327118566155347
 0.5865656527812102 0.5189869501177909
 0.5609191101048575 0.5185384346422369
 0.5863039085003205 0.5121957672882897
 0.5873712919500887 0.530089665300708
 0.5914478666694676 0.5212168408650938
 0.5850559562540664 0.5046637916742033
 0.5978687661509924 0.5208932852916962
 0.5914328242627186 0.5376258019509109
 0.5726152356567547 0.5198192939678847
 0.5965146157685476 0.5116254214477109
 0.5809269422277414 0.527391721536404
 0.6094382258925473 0.5160127006586855
 0.5844031178539697 0.5057991309851686
 0.5802292157769571 0.5147840666484151
 0.5809748195625836 0.5085576904501423
 0.5881955281347241 0.5179110857167831
 0.5807454022409584 0.5274189549350229
 0.5731943881023566 0.5006708201375139
 0.5916071254022319 0.524775142443313
 0.5782459662968017 0.5164643806567002
 0.591112442436287 0.5113975967139625
 0.5933044355334028 0.5292814644693372
 0.5936524582604411 0.5123785897159548
 0.5861671924034506 0.519022493401379
 0.5767633641045198 0.5177236742387527
 0.5882892599036321 0.5191700019698308
 0.6009604488448548 0.5270661861569576
 0.5959325354820236 0.5146518626920554
 0.5865663128950145 0.5126614880994268
 0.5856678646785489 0.5260105631457025
 0.5924530715011163 0.5131285868030627
 0.5967924005341266 0.5118982475729557
 0.5985312288646962 0.5064758026029688
 0.5875474925084049 0.5089249259445914
 0.5967049211557952 0.5205718891254777
 0.5825039418739379 0.5164161639679148
 0.5777072761941822 0.5188378775278143
 0.590249426675365 0.5157550830252353
 0.5780575850841633 0.5317394573428479
 0.5907995965992456 0.5124098684363824
 0.5904519121420505 0.5202070412987628
 0.5721445206699358 0.5102584356887774
 0.5957342964493374 0.5238309388657959
 0.5897985954355256 0.5196828988804333
 0.5912784221725996 0.5286553355583408
 0.5918584726431045 0.5221942008966546
 0.595146408018845 0.5170202808896786
 0.5929959575849486 0.5169847284385292
 0.5833946933301017 0.5168391136984951
 0.6052377829217774 0.5099431941311836
 0.5919658153407803 0.5165942329579662
 0.5958290613812732 0.5011223388741184
 0.5874462873109468 0.5159728351409284
 0.5986127548122269 0.5127434357071272
 0.5915699142767914 0.5142378309418447
 0.5925784913206298 0.5141179907516085
 0.5893006368305274 0.5076005745437098
 0.5979551606676681 0.5247777361075006
 0.5922783647889478 0.5180265929082356
 0.5903865043271588 0.5171214383296091
 0.6002979020390388 0.5267265827566319
 0.5920907753943857 0.5058368942631781
 0.5905610857077983 0.5167354847266614
 0.6002005536638033 0.5143345805151299
 0.5965274148336265 0.5196943857406439
 0.6000290142512548 0.5016968246566671
 0.5974921847667918 0.5003984224949775
 0.5970793367286926 0.5229495153361998
 0.5901924967159166 0.5182010440370856
 0.5932927334632871 0.5168386647835431
 0.5860432006271274 0.5132451153114838
 0.5896620082614352 0.5142384298484849
 0.6003991406087524 0.5216527025832404
 0.5941899359846422 0.4955034749152255
 0.5933574492843939 0.5098820703144696
 0.591583451523169 0.5126293281847507
 0.5815395538848146 0.5041760627732149
 0.6018439971176003 0.4979606398978018
 0.589913434042496 0.5118599061101822
 0.5927023158723802 0.5122911050098728
 0.5763796557852026 0.5131875923234835
 0.5962354443852689 0.5256935251904177
 0.5890358682549676 0.5199590531861967
 0.5900628199094776 0.521723101089254
 0.5908334662815714 0.5095661456310263
 0.5878341936443227 0.5141288066350929
 0.5966159889623195 0.5153717378067468
 0.5953866586261787 0.5082397425982852
 0.598382542212231 0.4983566131305655
 0.5976909030883574 0.5069216504757387
 0.5983394665414302 0.531079734100989
 0.5863189535857704 0.5235818349273271
 0.6047452441639022 0.5089670867069754
 0.5800691087060418 0.5209575369715453
 0.5969210284556941 0.5050389926399758
 0.597753879636033 0.5233343924106798
 0.5935013743970405 0.5262569526728548
 0.5851861258366581 0.5092708426102825
 0.5868410277873113 0.5275227600011186
 0.5940113362096204 0.513057566726093
 0.5894879191314587 0.5161291442056122
 0.5918462054657542 0.5070556545471163
 0.5947132764234286 0.5006276261244705
 0.5974280343342567 0.5054907510742062
 0.6077178477216008 0.5110515833014289
 0.5968827697706995 0.5115561292404998
 0.5968724306722376 0.5116586280062736
 0.5844529766363589 0.5291161679542503
 0.5902242167434124 0.5064309459321732
 0.5920214858873439 0.5139123442921345
 0.6065689860581964 0.5079687507867469
 0.5944761615879564 0.5300075045195752
 0.6038307841279971 0.5096583110577324
 0.6062394723907751 0.5150166319135464
 0.60877782943979 0.5259420599474265
 0.6036748372597575 0.5058808013464113
 0.6218026488081313 0.533718922386534
 0.5960393952610836 0.5050495491451062
 0.6194172491758976 0.5266708482740337
 0.6155108901110633 0.5143207123440515
 0.6032282869930309 0.5216508697433646
 0.6079490954823523 0.5267769776551209
 0.60294451410918 0.5198930017025889
 0.5956503767830311 0.5321924231376955
 0.5935080442048231 0.5230856186575963
 0.5874965332671769 0.524738481605138
 0.6175716043268646 0.5219328956863326
 0.6146399595978719 0.5105851954180356
 0.6125116599397914 0.5143102925017569
 0.5955365264114032 0.5204348600510635
 0.6159353961265337 0.5215246028677039
 0.6047196928296171 0.5209351212887859
 0.6032405972630022 0.5314319694340915
 0.6019705392598049 0.5295628495981709
 0.5927809654658956 0.5176170467933193
 0.6112760088120553 0.5368070222427992
 0.5838218517644458 0.5312102892211122
 0.6081229980001415 0.5117634142777348
 0.5965714662195951 0.518602886713759
 0.5981179233609417 0.5220142051370793
 0.5885101658062262 0.5167831070394653
 0.6067070516781498 0.5260856923994468
 0.6167871182219264 0.5178173583213715
 0.6096656356904143 0.5275299833450132
 0.5992502693431805 0.5129969369567402
 0.6002349727823345 0.5246900934940336
 0.5914961536241327 0.5238352797874323
 0.5934610287603397 0.5294398299113138
 0.6065222755606521 0.5268265097393796
 0.6011277850520031 0.5199827285909245
 0.5956813722588312 0.5285787623508031
 0.5901227261660811 0.5392846644617075
 0.5978912494321638 0.5217889319729329
 0.5928754190371212 0.5256199647467271
 0.5936247489184482 0.5259983756789622
 0.5893468935911302 0.516566730780099
 0.5975610812557454 0.5132016234639051
 0.5964522053633698 0.5147045244189263
 0.5992669007250723 0.5254190792573806
 0.5990342169328705 0.5212101039895991
 0.6018289333698973 0.5284150067112414
 0.596268750835566 0.5360872149811523
 0.598774355900877 0.5301855988284502
 0.5938739566721822 0.52589309038982
 0.5914913078171881 0.5273944225374021
 0.5970612459995367 0.5176996395113501
 0.5951947758673 0.514408012954065
 0.6013622276839994 0.5266665239075489
 0.5937304761286003 0.5316048775154537
 0.5938017451541112 0.5006418194415695
 0.5963106398137475 0.5283313421506303
 0.5917997296768392 0.5372600354155989
 0.6032448865250105 0.5301238032600172
 0.5980053654571177 0.5220591436333513
 0.6099937212220561 0.522113633992859
 0.5933147528378246 0.5280045704716374
 0.5967602885354985 0.539507533909438
 0.6001772580773298 0.5307950376921341
 0.6094628466835981 0.5258137572817957
 0.6001483215540513 0.5373792495629807
 0.5912167044830986 0.5223339621726459
 0.5902390727026504 0.519142655191642
 0.5932743806963781 0.5285550996052962
 0.5965910331810012 0.5252549810432021
 0.6018463552714185 0.5301323330972341
 0.599807690040332 0.5241471908737693
 0.6077489528713395 0.5254061869372315
 0.5907765248924425 0.5296115447876857
 0.5926541248996426 0.5380603018279276
 0.6060612863216317 0.5296667342158543
 0.5924035104934376 0.5141731484988638
 0.6021666864175867 0.5236397136360977
 0.5889786245272312 0.5322853234870365
 0.5964032427614935 0.5200135784055082
 0.594016332722375 0.5365971822926413
 0.5928086395060146 0.531924507730308
 0.6003676360373172 0.5272317379508759
 0.5925020556174707 0.5389598911181448
 0.6035514598686421 0.5174351504655549
 0.5956985513765589 0.5341689908430858
 0.598366517195749 0.5148164535269819
 0.5981028338700816 0.5106813863928974
 0.5941903188167191 0.519476416812972
 0.5820886406615939 0.5306455899271589
 0.5929627997344757 0.5097975373306535
 0.5980814750601487 0.5231385645317742
 0.5911859730198272 0.5224006104347456
 0.5954394741221801 0.517964427045804
 0.6049370166359752 0.5127638264450142
 0.5901673842025946 0.5226974102998571
 0.5989564244138446 0.5272498711420691
 0.6003176858628041 0.5304410681954334
 0.6073016666627538 0.5280937445165154
 0.6191477668827591 0.5291825292459961
 0.5956293918791773 0.5345176932886426
 0.6079640775618451 0.5355259361327221
 0.5932385900430366 0.5385253794166139
 0.6134049529716987 0.518473706695907
 0.596922182474912 0.524549073077537
 0.5883370840687445 0.5411851585219521
 0.5988986530153605 0.5361114889668587
 0.5923777615960076 0.5267081890064192
 0.5915270730129321 0.52987490966491
 0.602089447186315 0.532999134795314
 0.592188685789917 0.5205156013335938
 0.5928196084082644 0.5269335681596294
 0.599528016399371 0.5387416922057756
 0.599509546644108 0.5248860389428525
 0.5923184448044164 0.5369281231226627
 0.5956639360302309 0.520248058734046
 0.587176522430315 0.5263615619265484
 0.5897222304199025 0.525852883681049
 0.5888504373613686 0.5265542653032476
 0.598214187683363 0.522725109534795
 0.5901037144908527 0.5179967801690708
 0.6021455625220772 0.5358310973361614
 0.5903545898445578 0.5316823254192559
 0.5985309898976041 0.525378749192922
 0.6025776371940396 0.511945432681749
 0.5995661265568889 0.5169919803261308
 0.5974292259854219 0.5181840022266676
 0.5943597271853167 0.5346072745531625
 0.5872399017107091 0.5327318477410815
 0.5922903269199957 0.5226216929274953
 0.5912810739417096 0.5390685245739902
 0.6031645578044706 0.5321038928922461
 0.5802195379061386 0.5186754181017965
 0.6014442408447958 0.5348662111967697
 0.600295261207184 0.5379799246105958
 0.6012052467728648 0.5394799826239882
 0.592572088605347 0.5336458359666648
 0.5937954875849758 0.5299000868558099
 0.5948679979197521 0.5235695506149792
 0.5983221457306036 0.5328232858679228
 0.5909218545750429 0.5254342564702673
 0.5901593984641053 0.5321009071710734
 0.600130140637688 0.5326927052236319
 0.5990932629686839 0.5351512342914504
 0.6060791729959335 0.5261971256143571
 0.594008832884632 0.535248340544241
 0.6003337299063052 0.528524287772311
 0.589309491789769 0.52611756412527
 0.601723093419934 0.521850785783931
 0.6103082578776704 0.5293055585358922
 0.6080331039898432 0.5346839529530715
 0.6088443649433379 0.5202094702764496
 0.5935910722322478 0.5307679170910939
 0.5960364190835346 0.5329161489235691
 0.6026060999850976 0.5261189158492104
 0.5865657738804261 0.5378902495290657
 0.5864436930278492 0.5258795636356104
 0.6001465434169964 0.5223438535016207
 0.5994898263819567 0.5349560643575323
 0.6048058735627545 0.5205278850004174
 0.5974963630222454 0.5190272063619855
 0.6060767138024771 0.5161917049416143
 0.5935128616613128 0.5276230356052465
 0.5995539625214317 0.5197378236402532
 0.5928184635488445 0.5284754166257899
 0.6008802439347302 0.5422273333310861
 0.6000639587898834 0.5383134611249715
 0.5960844619176439 0.536934341645385
 0.5927136576020094 0.5176866821957858
 0.6000057236972919 0.5216530933376087
 0.6074106339984255 0.5269826739756881
 0.6004508043824699 0.5300448120193451
 0.5951913577940788 0.5293822861736467
 0.6045163746726244 0.5172566825388039
 0.5992802366180535 0.5176018584814008
 0.5983771425468413 0.5234811688115234
 0.5924869573480939 0.5270063785161265
 0.6103232153388826 0.5205089745471509
 0.596968476358797 0.5325804099026903
 0.592936631836527 0.5213578514457547
 0.5956106920532833 0.5242685075950816
 0.5938982595478819 0.5336037767463182
 0.5973718949058291 0.5261016565500134
 0.5862229249816061 0.5224788242137903
 0.5947566402296679 0.5316418603353456
 0.5979717882048612 0.5294498438929047
 0.5895643099204183 0.5294073463117592
 0.6027714113840792 0.5146439231869765
 0.6081496379578052 0.5229163701949182
 0.6081646222475284 0.5174864045433867
 0.5900215571510143 0.5227208981377732
 0.5815633245546746 0.5286477502023013
 0.6035255586610642 0.537503795074139
 0.5932980305990748 0.5360085629902213
 0.5900317976071761 0.5197127266616034
 0.5862295868760952 0.52363186888701
 0.6013552430976939 0.5271322802197123
 0.6059035562179295 0.5274234407838653
 0.5852629090027706 0.5247722506701864
 0.5858239185263695 0.5236641747241707
 0.5983647946526504 0.5240307458439539
 0.597654789804571 0.5277818836102559
 0.589583185544441 0.5265498701099491
 0.5930535031053324 0.5135495184819046
 0.5990928676111187 0.5241777919856639
 0.6167613943546334 0.5320980704555115
 0.5946759542905887 0.5223710024233538
 0.5957662019504559 0.521618415900114
 0.6012768397670823 0.5341139139111473
 0.6123239319965902 0.521833678910425
 0.6137075276334407 0.514837895636004
 0.6110943472173096 0.521026074940983
 0.6175813244799382 0.5324866076142314
 0.6014566763205892 0.5253900555789465
 0.6003359012587253 0.5198961388934686
 0.5998201120266575 0.5078432357678458
 0.5988049160558939 0.5285967166959709
 0.5964159542105703 0.5359637768477346
 0.6238390141884064 0.5293798156881973
 0.6073324624008556 0.5394035075907272
 0.6038106114911382 0.5145561995793514
 0.5988320127197377 0.5251219799863964
 0.6081044835611171 0.5137782982981683
 0.6016845790835612 0.5275682122229547
 0.5859075921914986 0.521599945438929
 0.6007001767605668 0.523094350498296
 0.6117591666681651 0.5256269757462202
 0.596165795496319 0.5409476666179639
 0.6135917869674548 0.5357600508990752
 0.6087159936680422 0.5303814086972795
 0.6067618042700254 0.531126940198195
 0.6149745916344279 0.524606663926433
 0.582648417851918 0.5288503205424339
 0.6064657435414406 0.5287631237506065
 0.624687753995485 0.525327602588835
 0.609251998573097 0.5243215352464932
 0.5982126590412489 0.5198626110031035
 0.5862220062262732 0.5261075901920009
 0.608505281859825 0.5282432765777426
 0.6171990243309966 0.5245644252367326
 0.5912986061106732 0.5169871382749637
 0.5976666583549411 0.526417286161365
 0.6110335382183352 0.5326274868963424
 0.5901943864118138 0.5287191370690786
 0.5894221152034527 0.5435230004385573
 0.6197861076134485 0.5320532095920256
 0.6075818068593999 0.5359422552546051
 0.6236041929673849 0.5378627527130049
 0.6177604817148896 0.524592797398878
 0.6024345173477018 0.5288180996145773
 0.605447603343559 0.5182482604745031
 0.6200256464720812 0.5281958723463201
 0.6020271357216777 0.5278856541469221
 0.6142915406527878 0.5328861999042274
 0.6071369682024842 0.5352177508582902
 0.6092305565478062 0.5276932621149973
 0.6093040633982748 0.5288114458910388
 0.6202816763715822 0.5303679875950366
 0.6177875728167153 0.5211732150929221
 0.6154863376038078 0.5306786508409695
 0.6136246074825007 0.5355939275449709
 0.6089364265002268 0.5220006540184133
 0.6029216342649181 0.5258433303036505
 0.6221465307792916 0.5220872329030207
 0.6093329348084221 0.5315359778623915
 0.6081966015372917 0.5238653677839598
 0.6190769056337827 0.531955296329555
 0.6239096275106302 0.5312525171702593
 0.6112137409744303 0.5281875314763187
 0.6067767807090368 0.5198076640957232
 0.6113805670398545 0.5261296238687712
 0.6190111282845301 0.5236213837098463
 0.6052741758096066 0.5373603448067859
 0.6266741322985285 0.5303585906087593
 0.6213115328932862 0.5286411525227664
 0.6091862837102023 0.5305245367554245
 0.6212542627634516 0.51535712019452
 0.6100998603898092 0.5329295384277669
 0.5973345913258904 0.5209222978820713
 0.5974500598109507 0.5347175881816943
 0.6191219814297199 0.5351314081851126
 0.6114613517681646 0.5226672380259064
 0.6129013679073723 0.5304914321176856
 0.6063755510489459 0.5294008582337113
 0.5999732711708399 0.5118504734442153
 0.6116614834708731 0.5233174748611764
 0.6126264006036581 0.5289203378516747
 0.6012218065757067 0.5236550293682403
 0.6180332697162546 0.5333769172114401
 0.5861660183319537 0.5379459278175674
 0.6123188307825476 0.5175259510462855
 0.6053354183582689 0.5436859061566673
 0.6073204561132221 0.5209228481246653
 0.6123365740962601 0.5288180170163441
 0.6071218251829783 0.5334533052583873
 0.6213546888232637 0.5355026495032724
 0.6076589031037998 0.5255049010588934
 0.6111971046096694 0.5272915046510142
 0.6179190983652402 0.5374058970525708
 0.6138671946568748 0.5171085922893034
 0.5977231712847064 0.5147329241519055
 0.5981603038267631 0.5280491004253428
 0.6203791340492576 0.5311912987648953
 0.593965487309762 0.5208449665308778
 0.6085122498855926 0.5170589408263729
 0.6066473851188943 0.5424367107865474
 0.6034435134698406 0.5305398835281095
 0.6044636802084894 0.524627194185142
 0.6077495177145394 0.5315679083940174
 0.6022570896150338 0.5241237092929383
 0.615442856126036 0.5227219006819288
 0.5974865954239835 0.5263674367349472
 0.5966670269180876 0.525216962245743
 0.6207832434963837 0.5236585918734316
 0.6004568998025646 0.5217077888494795
 0.6082367953263648 0.525864472917042
 0.6194004391377175 0.5296281834323445
 0.6164890097962042 0.532073541695042
 0.5989175653801203 0.5205861355061846
 0.6099555219763598 0.5383630114714993
 0.6177751135232533 0.5264652288640432
 0.6182815803472921 0.5272863741163923
 0.6087046586650413 0.5207391285184098
 0.6033684933995787 0.5273201446631205
 0.6034228135097099 0.5180608149695073
 0.6222049544225076 0.5321090106779122
 0.6135484830718423 0.5317411990361007
 0.6102541178421005 0.5340151322710801
 0.6026757380046056 0.5373965734215748
 0.6096046658572366 0.5311622961511702
 0.6237059237702479 0.5409432840395935
 0.6055501133022768 0.5491263759683778
 0.6106707757799914 0.5258508223662411
 0.6084024762988102 0.5313183763328179
 0.6059911600254148 0.5432944044878139
 0.6228196386548303 0.5448616308749402
 0.6138466564266025 0.5255308777889365
 0.6033706625533067 0.5351387941790772
 0.6074803352141909 0.5439931358157685
 0.6000636364128343 0.5370216578901027
 0.6118234918902461 0.5176264969959979
 0.6079201483873629 0.5417697512427536
 0.5998299756955333 0.5343897339335373
 0.6298426443933055 0.5360944527488347
 0.6059457198892632 0.5352514389272153
 0.6163888896732133 0.5465151781862705
 0.6171809385756305 0.5336854365875672
 0.6164491031370458 0.5301549811628117
 0.6232622503708629 0.5440439059966594
 0.6139123237670696 0.5315091533882228
 0.6164104170318826 0.5302360106637576
 0.6211143824563695 0.5411648162922178
 0.6205719062286184 0.5333451054828416
 0.6040712699545379 0.5368205792899012
 0.6150473624180754 0.5387482315820094
 0.6087969778550483 0.5361575404465694
 0.6239535745274102 0.5367714319993997
 0.6217018837412221 0.5527685004132893
 0.6187703911913788 0.5467450824134655
 0.6206014968072845 0.5642662683530281
 0.5999076674860322 0.5622484161061139
 0.6150254370926954 0.572287733491826
 0.6264598730929996 0.553738266237599
 0.6112085402073346 0.5428460347217522
 0.6225511415401607 0.5544243700572999
 0.6043507673285498 0.5675340234281044
 0.6210598480240523 0.5620394177897797
 0.6194901982835155 0.561999666800336
 0.624430675063703 0.5590302063082954
 0.6198945866002468 0.5441320706597261
 0.6166974988943428 0.5713710457939154
 0.6050902070810984 0.5704360196470816
 0.6321363382578677 0.5472739288458293
 0.610988261381609 0.5633010632901319
 0.6184547676951874 0.5604150390271612
 0.6166306460652549 0.556009558332347
 0.6204600960184843 0.5622610718455144
 0.6156311834776514 0.5476840005149141
 0.6169999836814136 0.5665732716719012
 0.6154806475192329 0.553510814346122
 0.6192331476246952 0.5693715420749658
 0.6213779841156637 0.5465786913247604
 0.6264616765112747 0.5707784996786346
 0.6139278287552977 0.5456849579704938
 0.6159113363338981 0.5547176211303286
 0.6110653276814422 0.5725850647501216
 0.6240139835751991 0.549192094245796
 0.6170782008938437 0.5549088228097094