# Created by Octave 4.0.0, Thu May 10 23:40:34 2018 CEST <olethros@olethros-OptiPlex-9010>
# name: results
# type: struct
# ndims: 2
 1 5
# length: 3
# name: PU
# type: cell
# rows: 1
# columns: 5
# name: <cell-element>
# type: matrix
# rows: 6001
# columns: 2
 0.517499459268893 0.5128121813769297
 0.5315390789162727 0.5180658267700484
 0.4597913869489513 0.5058185212671797
 0.5034500113131772 0.5126727706433909
 0.4512218790325839 0.5339960101279495
 0.4959310614720637 0.5435852213895023
 0.491328952439165 0.5131677472612713
 0.5119048965533539 0.5558400212881118
 0.4773893976871365 0.567324042033775
 0.4837508294728716 0.5513932217821074
 0.459395461982923 0.5342076433827736
 0.4932279407750919 0.552093153941813
 0.4700167827424171 0.5211783062834571
 0.477896780783601 0.5764975159892726
 0.4819276517724231 0.5799181215098363
 0.5212170100709094 0.564982237565495
 0.4519219376041092 0.5449540852087932
 0.5635419393902308 0.5550323281439968
 0.4594595851916063 0.5753698074914873
 0.5399980805550453 0.5646862471518214
 0.528128980333688 0.5759644849388375
 0.5240676149722889 0.5359203651986761
 0.5726918763223193 0.5521072211892125
 0.4920304277011322 0.5722547484527728
 0.5263702187636117 0.5709731870849877
 0.5187779356084473 0.5757159528170971
 0.4557177587715321 0.5614963312776742
 0.4963865309894011 0.6025352413011608
 0.5724227063488563 0.5738972179739823
 0.5081140890557312 0.5713464872393288
 0.5492660782249803 0.5597051238932671
 0.500786637780433 0.5171173684521408
 0.5398053288954358 0.5386652253658654
 0.5827000093621928 0.5562721594388851
 0.5408266263721526 0.5504597565841265
 0.5914656620863874 0.5510675967229816
 0.5137353786463562 0.5513156925001405
 0.5412061955424389 0.5220610639611343
 0.5074545096273717 0.5461792360282474
 0.5739151820991575 0.5455727084244453
 0.5499977405721268 0.5604422314829534
 0.5360826058785561 0.5433511500113871
 0.5805131717904284 0.5620080644009761
 0.5642214062808911 0.5658039214186742
 0.5722310862948657 0.5602140236282547
 0.5775531889714186 0.5493078231047896
 0.4875984082871189 0.5536683836335976
 0.525869058840277 0.5707432081913771
 0.5396756083472647 0.5545773579389535
 0.5036823763142494 0.5512282562184913
 0.5600611858961589 0.5571479953431517
 0.5178763510582828 0.5734994740853739
 0.5616751986821645 0.5777026814287974
 0.5127362498187363 0.5636646057977506
 0.5286546357932802 0.5857239141292434
 0.5671797224638629 0.5864341458017084
 0.5393924888599116 0.603684137342677
 0.536731308441218 0.5957904410832227
 0.5373833214606537 0.5877356626131593
 0.5123301705251081 0.5699910536905277
 0.5272283934916685 0.567988737156542
 0.506072334338617 0.5620371643625715
 0.492274966085031 0.5854347893364226
 0.5416552500178262 0.5800194242095459
 0.5108429993280873 0.5901090636085031
 0.5709880376254695 0.5659697690360664
 0.5179315674893515 0.594851606428648
 0.4891136980726766 0.5800358113428714
 0.5301812482431105 0.5920790696461352
 0.5546110381699541 0.5886292504067511
 0.5330909488836014 0.5988819201170954
 0.4694838347568692 0.5754469215505724
 0.5696517479440373 0.5662208296920491
 0.5377547105192644 0.5749118584495704
 0.5521456351479614 0.594742416348888
 0.4608681911376052 0.593511650254786
 0.5486482556025246 0.5712133669945064
 0.5727438041337998 0.5927634143614988
 0.4561546679907039 0.5785178538535829
 0.5302572732736043 0.5828918836985379
 0.5581171279355283 0.5762533594410246
 0.5325792177266757 0.5919607843635345
 0.5576545685928253 0.6104104748083302
 0.4882999710528962 0.6039533212340648
 0.5028137684386986 0.5902610122609057
 0.5937788077232536 0.5958488873425878
 0.5125865804786437 0.5785348905999981
 0.5716799543600618 0.5798520731986538
 0.5736437270689254 0.5969176490469713
 0.5456832307173344 0.5903004782872989
 0.5891042335713091 0.5872300251773934
 0.5164466128425583 0.5956481690750147
 0.5068921562739107 0.5904211486477962
 0.5628393753105183 0.576738063586208
 0.4770947526204756 0.5773113423888985
 0.5341188628310914 0.5847144899439176
 0.5094457839246883 0.5838639509016685
 0.5497134509266267 0.6081279908944628
 0.5580527912757662 0.6027404231564464
 0.583674488738272 0.5901631818932538
 0.5820234381551835 0.5837092510939089
 0.5352130117245083 0.5948007810001339
 0.4916974947874491 0.599088443322309
 0.5299039074512009 0.5792123244316113
 0.6089427431819602 0.5904022214409348
 0.5528288941396657 0.5928039202816314
 0.6020327795364175 0.5998335796502244
 0.5559279723166491 0.5931702719408651
 0.5534645037270073 0.6051947776152153
 0.5898447375861372 0.5593127269496099
 0.518245246571677 0.5815064809210667
 0.5359028379932892 0.593349752904436
 0.5721456698554042 0.5913252349361874
 0.5809881354952601 0.5897270041506704
 0.5290525322619005 0.5965667030915927
 0.5386021966934061 0.6001062248544969
 0.5579587759205125 0.6057111029178992
 0.5028615583760075 0.5913262076918553
 0.6164650533559284 0.5911947585323607
 0.590108777072901 0.5825955835070307
 0.5480261427694763 0.597137304619088
 0.5566114788901497 0.5968981789047222
 0.6097153358969101 0.5829778515764991
 0.5139281986922051 0.5843284462098457
 0.5318243028619298 0.5994999323363924
 0.5406260046561921 0.6035200024180374
 0.5942614847883202 0.5853064991095049
 0.5537474096143431 0.6014718107961418
 0.5635605236487035 0.6060020880337255
 0.5677830327350581 0.6088695849804421
 0.5519880011719227 0.6009732012758
 0.5712782037362879 0.5972001276507687
 0.5259941281724341 0.5932437228822959
 0.5578175853171009 0.6147624769673405
 0.5664384744616207 0.591192397960141
 0.5259233664218952 0.5918963757489338
 0.5393574106154253 0.6052427271475382
 0.5804951375651609 0.5971439136333332
 0.6062335484294818 0.6026126925697531
 0.5485839329831401 0.5897696550371676
 0.5447317549753284 0.6208538454112129
 0.5325505906838176 0.6079419298233316
 0.5505529374487846 0.5990619852120042
 0.5816491424286562 0.5942071836471871
 0.5491417799103911 0.6054099822067116
 0.5298538435954077 0.5945435386175512
 0.5533371174846881 0.6052265776624853
 0.5886593982573732 0.6077047503645983
 0.5202394406949844 0.5818633653534474
 0.5907221363350785 0.5742183516757217
 0.5057559985294217 0.6024399768451631
 0.536246892697694 0.6129131903879739
 0.511049725337443 0.5948573247831711
 0.4978679222305586 0.5907374771948335
 0.5014743746000946 0.6117277097653907
 0.565341897221883 0.6053178693703926
 0.5458603500680939 0.5949497684484427
 0.5203006734454427 0.5885359172374072
 0.4822902081270106 0.5763225489244734
 0.4927512759506128 0.589496411671561
 0.58452811663895 0.597058639127745
 0.5685550138383438 0.5837497864945834
 0.5620541256022745 0.5942718291456449
 0.5485724318459315 0.5844498592677924
 0.4663667968424544 0.5835335473239415
 0.5495189725444176 0.5827751865879995
 0.5529730462701479 0.5966614065331906
 0.5087796702277765 0.6003235887243856
 0.5537118158458789 0.5959989350228386
 0.5259493605438849 0.6064251300205635
 0.6031372743907089 0.5820046004955229
 0.5199242672173781 0.6146679075056716
 0.527288088606321 0.5862323250350433
 0.6116949971519442 0.5956338822148765
 0.5883573292907028 0.5987897724396581
 0.5083870585140929 0.5976498825088207
 0.5930603215123322 0.6059736226739404
 0.5350240072880975 0.6019866562382088
 0.5411756967920636 0.5987655976430033
 0.6231807185774486 0.6002541378036891
 0.56671818245309 0.608526892796895
 0.5958407390035343 0.6101515067895128
 0.5502666861723953 0.5989939700498561
 0.5073420190695951 0.6109779118332099
 0.6288175051583501 0.6079056471131474
 0.5876605034356418 0.5937875310656469
 0.4807467783210171 0.6008837384833521
 0.4839785306921024 0.6058272460722972
 0.57002845531087 0.5849787721407096
 0.555368426402197 0.6018922278408986
 0.5902765838386219 0.5986074880141883
 0.5455243569892377 0.6004676168206967
 0.6001252597831558 0.5736771706411413
 0.5656385001929624 0.5903203292308301
 0.5308138576938476 0.5864218935759564
 0.5672499192299206 0.5913325410583149
 0.5934071643815162 0.5718890470864332
 0.5696903211718848 0.5835391088264601
 0.5408579566895733 0.5942359092776953
 0.5478561871660411 0.5763800018076858
 0.6173310121226148 0.5867831787064013
 0.5573164097926177 0.5968322072887035
 0.5840630134689702 0.5991580527036716
 0.5514673382558418 0.5936934758717317
 0.5520712766453976 0.5872616480924585
 0.5845694184900407 0.5840924795412812
 0.5801889396214701 0.5793518533867167
 0.5423663530677286 0.5949631855119215
 0.5414300161778764 0.6005897587648212
 0.5279990754039217 0.6043885993511914
 0.5760091188356838 0.5943112285915614
 0.5483979289294689 0.6002877242548149
 0.5908396164854708 0.5986254654059366
 0.4899322184720072 0.594884213008114
 0.5374794217373703 0.6062983157003222
 0.4991978736964289 0.6015242249187142
 0.5578910911182234 0.6058893471770125
 0.6116662658013915 0.595882733784592
 0.5549340188460958 0.6019131131402122
 0.5773879912319336 0.5979303391304138
 0.5175670281725415 0.5988838816806249
 0.566974832048843 0.6040844993562513
 0.5577171763038998 0.5977103654379418
 0.5487352336644004 0.5886676358134016
 0.4983304964213456 0.5893501862159468
 0.5780807013550846 0.5999820124398491
 0.598774214051365 0.6156893048723612
 0.5622745367348279 0.6125129459975538
 0.5193859771239339 0.6030643092152554
 0.578712671503954 0.5925526266751144
 0.4921169911959163 0.602963198192915
 0.5225338958036169 0.5924612626551335
 0.5538895152054262 0.5847727451218585
 0.5956246108753517 0.5968972130745253
 0.5225233063979742 0.6092835840743902
 0.5600346985128373 0.597973861070475
 0.5520348687405977 0.5961949870063741
 0.5853215023027887 0.600195303232121
 0.6167378064742521 0.5779002706316382
 0.5485782569938856 0.5983164043210492
 0.568027582800554 0.5736622085395733
 0.526183688453131 0.5767526806210435
 0.532622279808742 0.5847283176780058
 0.5290385265147761 0.5996188443881126
 0.5806976730267028 0.5918321022550069
 0.5574612056212407 0.5847108574679605
 0.580747663794048 0.6015265632518633
 0.5893916063259941 0.5842545329630432
 0.5544613427510765 0.5781200629003652
 0.5592898566719404 0.5793461874313547
 0.5483066824490049 0.5871893397426643
 0.510630571847155 0.5937311239920295
 0.5518050165391338 0.5892806413058589
 0.5408541886850594 0.585800510658852
 0.565929991392815 0.5818402934790922
 0.5448898879944105 0.6037949065417436
 0.5950263799026881 0.5926976276133015
 0.5940866621647287 0.5896920299362546
 0.5803217259366407 0.5939120112222688
 0.5592044592637182 0.6105145342399052
 0.5659575597882598 0.583953516502529
 0.560480381105007 0.5938498814674024
 0.5457724251554353 0.604250167639082
 0.5451000225500269 0.6001462426776301
 0.5935261387895436 0.582999223668628
 0.5429000890799142 0.5996068933313693
 0.5775160551018664 0.5840685213864649
 0.5700297799406661 0.5943288128871282
 0.5519618219363553 0.5992512696788009
 0.5850466215576718 0.6054307425892687
 0.6073445497478496 0.5954826344391256
 0.591457484164352 0.606201294138126
 0.5660349574635077 0.6093835656482004
 0.5349223171509562 0.5851285347011203
 0.572130737824281 0.5685155894482931
 0.5809091189480298 0.5919232457869604
 0.5821170085209625 0.6216320837946826
 0.5383970603005487 0.583598884072946
 0.5803861690681523 0.5905570789465897
 0.5762969746481481 0.5875332394885415
 0.6017870426980111 0.5847472497067661
 0.5551965217671589 0.5907513023060577
 0.5559495835052801 0.5968358852802432
 0.58057266247384 0.5953854679548626
 0.5618280889975301 0.5989859853590532
 0.559139296598248 0.5987391010079351
 0.5584380448116687 0.5827900873382049
 0.5721622121535725 0.5939337071256456
 0.531794991064819 0.5836055173851433
 0.5439275932990039 0.611618489037087
 0.5475747767485581 0.5939004562019697
 0.5929931734174518 0.5907671760424248
 0.5515838939973452 0.6087017210570129
 0.5910919451042821 0.5889118837504255
 0.5886220222239844 0.6034213001638646
 0.5953954484293094 0.6095970997428372
 0.5229138975479519 0.6156079685618944
 0.5299753750234484 0.5917389321697718
 0.5396058562320587 0.6008316922585102
 0.5436730905540359 0.5871588591021237
 0.5594958884839804 0.583620563310303
 0.5967332373461687 0.6008655485744478
 0.5212028823990935 0.6063615080260758
 0.6219617052407077 0.5991870796989871
 0.557268502359893 0.6005551744329615
 0.6116770773944765 0.5991956493675875
 0.5772533664277782 0.5997294598366572
 0.5823534443137104 0.5987427224706963
 0.5568393533977322 0.5943690666212168
 0.5452233548171825 0.5956258514929675
 0.5408366187940029 0.6120034504353995
 0.5198919104987041 0.6096380459094802
 0.5720201018991347 0.5858875774334817
 0.5480272554890131 0.5972996927534447
 0.5980470667677903 0.6087328309716054
 0.5467219103532219 0.5890673989193205
 0.5195638109767279 0.6023992484463411
 0.5804794037269719 0.5976388657313679
 0.579473349842199 0.6000107907714336
 0.5775201510696195 0.6118332772418664
 0.6083446652269662 0.6020269875239742
 0.5903457146857395 0.5927775901097161
 0.5910419487169134 0.6044927624232235
 0.5603989924524855 0.6016863691327552
 0.6035834574698772 0.6087802643881149
 0.5260978506094325 0.5951251142500565
 0.5860929870019009 0.5949711961176405
 0.5690403330750232 0.6004541828441803
 0.5519798915128228 0.5953431692049593
 0.5543392962589418 0.5963024579003253
 0.5759022030771689 0.6030870211183977
 0.5857026572999235 0.5939507669872947
 0.5594989132447817 0.5920983828700807
 0.5833583410672039 0.5965747868655795
 0.564775132932513 0.5906101841029593
 0.5901382078425966 0.5958611947911892
 0.5574786817616144 0.5999368074812597
 0.534827692710427 0.5979632392457326
 0.5885185687066353 0.6037979457880241
 0.6070174543739347 0.5926451190402181
 0.561514973010135 0.6080020745359999
 0.5911352703890722 0.6139368937195179
 0.5875958316131339 0.6035083013911277
 0.5865516115820771 0.5963953696487031
 0.5653108794978446 0.6000255756583539
 0.5554994039609844 0.6027546950006433
 0.5804843971376938 0.6042215856070781
 0.5942288589220156 0.6148625284887442
 0.5457048923275782 0.5996040802097063
 0.6047571728584918 0.5955376025950283
 0.5437455499751387 0.5980066487098872
 0.5629231815756779 0.5956939045262472
 0.5816617588072392 0.6013720197164746
 0.5794703795731327 0.6071357200075236
 0.5257747869800546 0.5876278613571222
 0.5803558061889533 0.6023514461961164
 0.5642577156436761 0.6006117900291874
 0.5984604054837716 0.6062444492229796
 0.6047837446941114 0.5975029537599734
 0.5859029331307734 0.6034532318561386
 0.5578067847588084 0.5979276534462972
 0.5723391369108426 0.6084418822822147
 0.5929641147593094 0.5849417969419615
 0.5752471514738722 0.6000575671255487
 0.5856201978597042 0.6035300930489896
 0.5943636937159047 0.6023017807373611
 0.562851491277768 0.6021875888072714
 0.5567065828691985 0.5912301940589826
 0.5471729707176797 0.6024634905985117
 0.5366610485436888 0.6005253792596895
 0.566410608304792 0.5897028623111322
 0.6216645037173636 0.5953065536235227
 0.5919578423151273 0.6031699786525212
 0.5732086851020571 0.6140509277779425
 0.568908424918479 0.5962430170689377
 0.567476425124708 0.6090234818663554
 0.5828105122917859 0.6013706402916061
 0.5782422721637506 0.6129999442212052
 0.5930107970590376 0.6016864691400979
 0.5634989238815792 0.6014402164736171
 0.5766370408982077 0.6132194022356872
 0.538766698730624 0.6040618621944255
 0.5495274412451472 0.6041714970540373
 0.6005873856409333 0.5997532214657993
 0.5749868765435061 0.6173039197573338
 0.6023555448827348 0.5986133288156417
 0.6147597998125726 0.5913527097373985
 0.6040553845996232 0.6064984448871726
 0.6079587729356668 0.6038866887083429
 0.5758020740711209 0.6063266576658662
 0.6001991288093859 0.6101287643708476
 0.5930968874596172 0.610300780825227
 0.5743101062215381 0.6104426197503701
 0.6013689625044168 0.6104848458915122
 0.5762742871112522 0.5967654592626064
 0.5453076521750272 0.6012606709767152
 0.5620305278877324 0.6003540547710405
 0.5431787344944005 0.6046937998138422
 0.5878128675395049 0.6000587024108163
 0.5995821785622201 0.590640972245586
 0.5975042194503233 0.6012000210674994
 0.5974112578479202 0.6053945385023486
 0.6045985478624543 0.6082177765513791
 0.6201735966213028 0.596799818710826
 0.559279075171349 0.6038565746042094
 0.5976762981498548 0.6010687462646732
 0.5981120213135044 0.6055593151510946
 0.5633611892155372 0.6111648545375689
 0.5882937241003956 0.6026518490683926
 0.5824704247674513 0.5994000326007045
 0.6192794795260456 0.5891611412304369
 0.599849219615034 0.6051045360015082
 0.610462729576434 0.6085792078193497
 0.5776012845319494 0.6061958332119374
 0.5798641837402524 0.6012914516705719
 0.6142239437093189 0.6075492499303459
 0.5988457499697999 0.6041295695431594
 0.6076141589308142 0.6099595160868664
 0.5770248149375871 0.5961693855709748
 0.5907356135812111 0.5934576791269969
 0.6015435979508564 0.6084448860482294
 0.5669574273250959 0.6147343279890154
 0.5814103022180758 0.604893919980292
 0.5976738583936139 0.6114897261196148
 0.5959764337094917 0.6052884310435003
 0.5903825461783545 0.5994782916057606
 0.6196585918756957 0.6091244724068646
 0.5830486748033991 0.6071451125022403
 0.5997126688212311 0.5921615469388826
 0.6102868395211158 0.6006549078836164
 0.5866233315354916 0.6045745427863
 0.6060456763270625 0.6059600422331969
 0.5797040480137069 0.6051043266620524
 0.6067779946810475 0.5976794559952261
 0.599554711857254 0.5958030140947723
 0.5749185326817801 0.5969669100237974
 0.5811465973713321 0.6037969093130592
 0.6002860619659302 0.6023232001472689
 0.6090576854604614 0.6039489892936679
 0.6114960338156841 0.599205446613162
 0.5598792270412897 0.6037381942158833
 0.6063983201567447 0.603392245132793
 0.5758581791903759 0.5973269719825854
 0.5853934558057655 0.5984205508225828
 0.5985140689621387 0.6099380431718183
 0.5853705475105285 0.6017789539893749
 0.5879922552953876 0.6064064801388438
 0.613305595583176 0.6084519223555249
 0.5515728883393176 0.5946175395191232
 0.6031467690874204 0.6030736328080394
 0.5999448233767158 0.602732305036823
 0.5979801520454489 0.6064376551523407
 0.5804449630116134 0.6087707290518212
 0.6045526982134874 0.6028801887172272
 0.5755118850961334 0.6026821913535265
 0.5764948425577382 0.6107127781341551
 0.5972430041913213 0.6011315325076152
 0.5368587959763393 0.5923566229884745
 0.6150046378034748 0.6175007960330781
 0.6016055413785419 0.6028820160349792
 0.5862868747884987 0.6051468768231664
 0.5823868735420019 0.6087055753216524
 0.580489046307763 0.6052513423216321
 0.602842831961112 0.6063158917892358
 0.5459415370862953 0.5865724071538619
 0.5913106862502433 0.6069142803927048
 0.5760875870855491 0.6075459117279237
 0.5880668300250295 0.6021124056162365
 0.5823173296554731 0.6076937285425903
 0.5915459123333346 0.6057430819852236
 0.5807718023482474 0.6077220034803084
 0.5892003055383511 0.6076464617894115
 0.5700849910405588 0.5900867484214364
 0.5777926569871852 0.5979257662097273
 0.5838175895062482 0.6014184340724421
 0.5890052591756166 0.595621497713128
 0.5728569545336785 0.6025966751924743
 0.5875414962773917 0.5954853434535877
 0.605069585150664 0.6074197520649277
 0.5931920912288248 0.6006982260619661
 0.5948349306596588 0.5987899265308168
 0.5799800493050091 0.6018043199731726
 0.6096253102430252 0.6007458640700045
 0.5826940903392032 0.5937435004429573
 0.6179972704446983 0.6051134982391062
 0.5452537058003905 0.6011868745420178
 0.620206745793185 0.6071852204137491
 0.6076180094107098 0.6043559516121353
 0.5683064990829891 0.5995952578983536
 0.6164500769254332 0.5978363554219229
 0.5774676082443623 0.6037935308011182
 0.5867401922545583 0.6061138321667482
 0.6119036797497627 0.6012451369432841
 0.5984265081688681 0.6074483445515404
 0.6120228363443532 0.5964071282484469
 0.6198011597178512 0.6054750437115878
 0.6127860105666633 0.6064473146578199
 0.5852374635339733 0.5839812047361429
 0.5973782285534712 0.6022406432685392
 0.5854619080720512 0.6039406829977824
 0.6074346835149593 0.6191370077244251
 0.6142801209842844 0.5982920964324707
 0.5792005145561389 0.6094539540978957
 0.5818020519647602 0.6085777521611005
 0.6032369858329126 0.6160184103265207
 0.6013560831588866 0.6140620611981874
 0.6118294978658638 0.6087530724450314
 0.5979893704539354 0.6138858677329586
 0.6200555676809781 0.6060852605371
 0.6154262352136954 0.6077035904826766
 0.6152474789518889 0.6041913475072938
 0.5954932351986093 0.605448462441789
 0.6115163851115522 0.603407030765461
 0.6037713102695443 0.6182836352164315
 0.5786475808777108 0.5967909126045713
 0.5977022593023058 0.6004020271843544
 0.594954035005091 0.6135127109141293
 0.6031501002206556 0.5958054737300094
 0.5943242090411796 0.6082351139232614
 0.6029184682857938 0.6027217818600585
 0.600119606230109 0.6079777527269032
 0.6018845501126792 0.5981286966807378
 0.5840487068709272 0.6048340707872093
 0.6029111372885561 0.5941485118612663
 0.6055817349532481 0.5977250712805161
 0.6260160446606643 0.6143326824274964
 0.6252045639449457 0.6156837302453171
 0.6002655998471275 0.6044515353324832
 0.5972988069025943 0.6033186324583382
 0.5890235321137191 0.6025616634199098
 0.5772849792481677 0.6114023911219431
 0.5840454375103096 0.6168238881033142
 0.5677079133164898 0.6066669467543959
 0.6006597482530419 0.6042353557073961
 0.601444909997921 0.6020736340170294
 0.605172881803866 0.6190442013726605
 0.6015553665064536 0.6049023311348589
 0.6159855917020384 0.6027757122155942
 0.5773315377020943 0.6117884650314493
 0.5897314669893751 0.6171386452442782
 0.5693619319111867 0.6045878772950646
 0.616036031979364 0.6019795150807411
 0.6003893746091485 0.6029605895579873
 0.6097618673391166 0.6133302110559703
 0.6099974366323946 0.6152221756342181
 0.6113888212999931 0.6036765668105449
 0.6125776676944392 0.5984729688586166
 0.6094499765329053 0.6044569586984141
 0.5993141174414455 0.6034834141802706
 0.5750309680200983 0.601364730328645
 0.6069689696256287 0.6154063566424887
 0.6101744618858624 0.6160358948466841
 0.5945244562778496 0.592643973347449
 0.5790353921625369 0.602170297404185
 0.5949942528833223 0.6122094284930206
 0.6210229194821274 0.5913779478630747
 0.5994711703099704 0.5898207167646851
 0.5792880729156957 0.6035666820339362
 0.5990687398603101 0.604351139008972
 0.6006443716454208 0.6035808043243998
 0.6086390976221521 0.6032182894842221
 0.6135776978927033 0.6092355424579168
 0.6148468448209395 0.5902099497271751
 0.6151471596895691 0.6084946948875454
 0.6034085141790689 0.604298473082454
 0.5990557823656363 0.5974195744681766
 0.5787146054997044 0.603633321589975
 0.6126908718046914 0.5968865998434597
 0.5951129493148383 0.6039309698688714
 0.5810745164794424 0.6027381808412868
 0.5789190533894333 0.6024219485227109
 0.5935721214440576 0.6014935640050695
 0.6136151746764783 0.5960181392341193
 0.6050066195997006 0.6100003076597782
 0.5945733638270576 0.6023299706303116
 0.6081497079185048 0.5972083885204319
 0.5884196019250478 0.6098264914959993
 0.5983634213541472 0.5978145137621131
 0.6156984367141041 0.6002247265537819
 0.5951578700747465 0.607722602209491
 0.5907380969156789 0.5969529044195068
 0.6085576928276855 0.6155843470585728
 0.6030879604443269 0.6028936575120541
 0.599723290760412 0.6121772852879032
 0.602703554593394 0.6007359847767529
 0.6082709368950228 0.6060996881555015
 0.6077704501448798 0.6115404075290573
 0.6057380049003724 0.6053819743428178
 0.5954525489445617 0.5996151933579715
 0.6060053750042851 0.6036856591507062
 0.5645533206794322 0.5943768246847093
 0.5885935795470769 0.5963462589688683
 0.6053210460259655 0.6005575116478602
 0.5943017595018804 0.59507114548576
 0.6046426846027867 0.6039216121816774
 0.6110553590813392 0.6020220901790218
 0.6261387039293967 0.5979270873598177
 0.5786240016821206 0.6056119725392453
 0.5918011217138598 0.6026110551418171
 0.6032938141043566 0.5978242594453453
 0.6209792956573442 0.6082669806742843
 0.6127337500741872 0.603911877016018
 0.5985059955141583 0.6120784480739183
 0.597406474844088 0.6011765551257906
 0.5983285116312895 0.6028785366585104
 0.5831233314338211 0.5915135650776443
 0.5458480131162523 0.6038247651189003
 0.5938464056216818 0.6057446262999702
 0.5935447751887822 0.6013140805283331
 0.6064629264332908 0.6129452368122472
 0.5863320086537934 0.6094743120230751
 0.5840893619428968 0.6058136495444429
 0.6159318775649788 0.5911590967396311
 0.6033981056717781 0.6058714711377787
 0.5814065304200996 0.6002749995154248
 0.6110416447416824 0.6113268444242946
 0.5942222872277493 0.6053127294933038
 0.6107180542655395 0.6138709886521386
 0.6050191958469588 0.5984976427043343
 0.6031902154075156 0.5947289235368873
 0.6094929533402108 0.6152727800603081
 0.5384577399657605 0.6046838120754932
 0.5949036804682418 0.607576463209297
 0.5810816559290364 0.5956005911649959
 0.5988279898021623 0.5993983336822947
 0.6052921914369159 0.6035617187423579
 0.5924219517682937 0.6108391629139704
 0.6070448350567396 0.5985121060115555
 0.6143402198823964 0.6041792502546536
 0.5991838802992943 0.6071642845083808
 0.5858548854645992 0.591530694255278
 0.6009088503862949 0.6102491683016814
 0.6047568073921114 0.6194210006280257
 0.6010100538487918 0.5909098634273728
 0.5864725941949657 0.6078061800920718
 0.5993832896475362 0.6105752706724239
 0.6127969784340048 0.6107389415009198
 0.6006368129190169 0.5975423762756987
 0.5734433209612965 0.6070293402712043
 0.6133398799526844 0.610731079265541
 0.6234089520153467 0.6121415293289624
 0.5536465857805547 0.6143752993522695
 0.6088880045746673 0.6067335863056604
 0.6310212069364607 0.6074648322969679
 0.6040234097846158 0.6191337492067274
 0.6145751491242563 0.6005407923649673
 0.6038992254113527 0.606443884469436
 0.5917518498942527 0.6123489185861075
 0.6095332014586229 0.609219366498911
 0.5768490156606326 0.6027072666351357
 0.593378820910559 0.6176054070971395
 0.6046961657744736 0.6131992153634955
 0.6015213147092695 0.6104411273001028
 0.6136225244238733 0.6079624285204883
 0.5977454543918045 0.6132239919395971
 0.603053973901518 0.6009799166321321
 0.6003835738642914 0.6077281786422806
 0.5999218343037288 0.6087529996735462
 0.6084849156215478 0.6148052952737533
 0.5999457009953665 0.6097059137052008
 0.5940010060515923 0.6155929111638918
 0.6080964671905034 0.6147512969582249
 0.6101733520163193 0.6032687775362561
 0.6122996407654757 0.6079707494338294
 0.5746494072215531 0.6058142750668208
 0.5967162125327152 0.6064783078037966
 0.6106608186531269 0.5967146594933377
 0.597210006616979 0.6137058321507251
 0.6137220487405667 0.6116997779770913
 0.5901902991701727 0.606444369190542
 0.5863398842763767 0.6072761383749558
 0.6204215679558509 0.6123339523434776
 0.5974145856760164 0.6075961709886051
 0.5866516392779324 0.6147241514722747
 0.6085872832867779 0.6036458700096947
 0.6025303843349299 0.6036485351228028
 0.5886972794387905 0.6173784067079813
 0.593507056048621 0.6148800415250146
 0.6020655882725929 0.5987612616823138
 0.5940906590611976 0.6070288456057991
 0.5891886768317517 0.6146785821211838
 0.6070983469177204 0.6189510577587506
 0.5869816994462171 0.6148049957814558
 0.6037176440455979 0.599949230941903
 0.6064517686403204 0.6135264441031508
 0.5811980564382151 0.5984278322428477
 0.5914619291491481 0.6124560445585
 0.5607176424609932 0.6088851885582949
 0.6011174381255771 0.5950690093803663
 0.5963732217184368 0.6124426055481161
 0.6065472506524021 0.6035919202993704
 0.5971673736562763 0.59928777026104
 0.5938915021265344 0.5915966618090109
 0.6027742347106825 0.6137116658679256
 0.6059525138373436 0.5946505570127314
 0.5725957523060154 0.6181291991335263
 0.6048382257318682 0.6086153386194166
 0.6016159951126061 0.6164415250816709
 0.6024762216385408 0.5981056391078085
 0.6094055174332539 0.6147747445043716
 0.6029885726727531 0.5950844137012323
 0.5675055989772241 0.6033583814466031
 0.6022346315896968 0.6151557480717053
 0.5957860025589955 0.6161712655359498
 0.6184838061681741 0.6026517028239701
 0.5937006448920839 0.609277850162088
 0.5845511370454607 0.6008984289291656
 0.587206199389159 0.594513757686699
 0.6045977577938206 0.6149917107802391
 0.5870103580119493 0.6055416478912156
 0.5929422261814022 0.6069796436670689
 0.6063035286013436 0.6094556423133348
 0.6100303532151069 0.6141756968593779
 0.6101692889468407 0.6175799577020645
 0.6004133180511387 0.6074473937331111
 0.601494019390184 0.6174317717774197
 0.6107201413751675 0.6054241078728603
 0.6080204449268494 0.6055468852369291
 0.5943227236924268 0.6108366944621193
 0.5874648172720387 0.6114681941698372
 0.6026585600415976 0.5938295092780441
 0.5981608159862748 0.622543388644868
 0.5929951584096986 0.6140824150865306
 0.6110817036288163 0.6040622602772152
 0.5804086393971462 0.6079100427940713
 0.5961670942977182 0.614647133125268
 0.6062586391674923 0.6215415101180662
 0.6062059777417432 0.6152467343874475
 0.570492767902828 0.6148414826339716
 0.5990804382063049 0.6156103786740931
 0.5808286318500218 0.6171513024480939
 0.6036262733592901 0.60766647016108
 0.6041460079337232 0.6158688529787416
 0.6162079452341906 0.6110892448289742
 0.6049039073852494 0.6164762870531778
 0.6069276170743587 0.6099854530902171
 0.5888997426772921 0.6128915612005528
 0.586009345610031 0.6130933389921285
 0.6119885013290756 0.6104659708735767
 0.6073417992371521 0.6112639219398164
 0.5920444425977947 0.6071224100482252
 0.6035705533127349 0.5923158759739072
 0.6155042652002333 0.6098333346016013
 0.6066621456372965 0.6068146443500056
 0.6045457744558419 0.6117434095083975
 0.5976398409236418 0.6195409063368423
 0.6008935874537571 0.6134547467174868
 0.6069568231859034 0.613237952768374
 0.6057305394170042 0.6034806001936698
 0.5874929712691931 0.6149002847791731
 0.6057768380312855 0.6033976011865116
 0.5962098347132788 0.6171453571422656
 0.6026486916138093 0.6024939433783408
 0.6090154132338843 0.6139060839960547
 0.6180240443553308 0.6085915004177674
 0.6272776624579129 0.6152976621353963
 0.6211282367874948 0.604618668283086
 0.6108759171646366 0.6220069332584148
 0.6097594545712949 0.6108481291598239
 0.6056622030182384 0.6215735884403498
 0.6186441543119018 0.6158001704486977
 0.5886140506554342 0.6033774813694321
 0.602908469232311 0.619418517247158
 0.6112612482828349 0.6158847343961475
 0.6019934645072057 0.6135895227842949
 0.5875060110708301 0.6097844128217143