# Created by Octave 4.0.0, Fri May 11 19:32:48 2018 CEST <olethros@olethros-OptiPlex-9010>
# name: results
# type: scalar struct
# ndims: 2
 1 1
# length: 3
# name: PU
# type: matrix
# rows: 61
# columns: 2
 0.4674494469068418 0.5289701431413008
 0.5634043474339691 0.5827513964117307
 0.591052660494211 0.6224879995393827
 0.6005471715715697 0.6178520453143342
 0.603752805928963 0.6245008987720841
 0.6118769184649245 0.622872853818594
 0.6051983368709065 0.6269095597663056
 0.614396373992482 0.6366273011264229
 0.6169997189111472 0.6329481990872633
 0.615895171553217 0.6328565789409464
 0.6140732281045189 0.6310762561899033
 0.6098761943442934 0.6285393539980146
 0.6050103818505557 0.6237072734547785
 0.6008319760716115 0.6289256993499061
 0.6094961761848607 0.6244538945460343
 0.6006926448555503 0.6224660891572754
 0.6068932278108655 0.6184396338004293
 0.6095455400679405 0.6202912084499091
 0.6087779542445807 0.6207580357995823
 0.6104901280864198 0.619106610579429
 0.6114408141827873 0.6180504585123505
 0.613974771187509 0.6199897414760452
 0.6145199527022878 0.6183674410992027
 0.6146443734866144 0.6188432356844853
 0.6093098433814841 0.6196392067355654
 0.616766427884163 0.619245705283653
 0.6133675054609452 0.6223332259036275
 0.6136649424088502 0.624935244918179
 0.6217685990632252 0.6260892326843566
 0.615593811773876 0.627014099091507
 0.6212567548000627 0.6266351885551911
 0.6157847208814233 0.620006335200857
 0.6141072790307058 0.6249961695873031
 0.6255605641029244 0.6220648691175634
 0.6172913146713213 0.6237174597994275
 0.6177948131502085 0.6237946768789179
 0.6222984584569169 0.6233857990656965
 0.6175661611982417 0.6200963251876607
 0.6257029035855276 0.6246173207684313
 0.6204468683882595 0.6249015057565741
 0.6218018137022204 0.6236203961225837
 0.6268706381494057 0.621955145456396
 0.6209245117636483 0.6215333618653732
 0.6266185845339494 0.6215943253701695
 0.6229442744321518 0.6222624952852422
 0.6226631211902 0.6244071528793668
 0.6256598482747597 0.6217828126152727
 0.623138912647129 0.6258122923973047
 0.6271558310681326 0.6239968327004582
 0.6231514509612983 0.6263713039668383
 0.6229879655572461 0.6215616089743021
 0.6239493530287917 0.6241005496937693
 0.6196253079764846 0.6248122179390923
 0.6276343497049633 0.6275246171999491
 0.624980136587537 0.6215377425568502
 0.6238917001995837 0.6256475511486708
 0.6268167309268038 0.6263775261767757
 0.62628544938943 0.6259987158037381
 0.6255689962943505 0.6232879824579434
 0.6232465355317166 0.6268835856722199
 0.6172441989325592 0.6211911498079721


# name: PV
# type: matrix
# rows: 61
# columns: 2
 -0.3882788791131391 0.01391065504584871
 -0.05223963829908773 -0.2486282949779859
 -0.1838035349363271 -0.3843015757743993
 -0.1441650679567047 -0.2906875928090034
 -0.05480549804000573 -0.1661234175064353
 -0.07029238291532858 -0.1869755816953023
 -0.1033954564279413 -0.244695276760585
 -0.08298262528305966 -0.2486567627295838
 -0.0749857531553334 -0.1958996599313783
 -0.04680747307819211 -0.2042426330151422
 -0.08717785917501547 -0.215761405243354
 -0.08102461684196771 -0.2182970092133171
 -0.04430269269788567 -0.2297793777284611
 -0.06235567584808843 -0.187443588454014
 -0.0696400725555017 -0.2314424930624704
 -0.07481021737614246 -0.1652526007965935
 -0.09696160527507736 -0.2223920696114353
 -0.09083853773714445 -0.2276942824167113
 -0.02413346631696101 -0.1937583829351632
 -0.04105850662499672 -0.2479074529773989
 -0.1583165637349839 -0.2485613093638728
 -0.129376108294292 -0.218906525700863
 -0.1658160115004217 -0.2341318171343763
 -0.1305487407317825 -0.2347480499414886
 -0.1229246247906676 -0.2218660952857701
 -0.1174788216055975 -0.2149195387352754
 -0.1134998834165868 -0.2057189102184349
 -0.1287140435506288 -0.1887276712195576
 -0.1477414347918975 -0.1897092992659535
 -0.1582487705898729 -0.1730374589875874
 -0.2238042467234821 -0.2027984018120397
 -0.1600396578165502 -0.2567344357897919
 -0.2130350082349828 -0.1837938211295929
 -0.2172908767478577 -0.1963037268353829
 -0.1710873721099414 -0.1972008147847822
 -0.2251434503061088 -0.1997130252024765
 -0.1474933141358704 -0.1874372725345742
 -0.1898007649953782 -0.2295839056331633
 -0.2598144799464716 -0.1766951218871431
 -0.2506698916128804 -0.1933550378936352
 -0.2331161366115411 -0.2269221021210532
 -0.2095887930492392 -0.2163231475157451
 -0.2125445810750377 -0.2133903126641619
 -0.236000376855389 -0.262084074609471
 -0.2420597789332417 -0.2440012023715483
 -0.266165498980836 -0.2778511303027972
 -0.2536033720604863 -0.2569004808165203
 -0.2167868649616497 -0.2146502235004677
 -0.2221663853140873 -0.2303047327850365
 -0.2668052281366536 -0.2437700843010777
 -0.2386826249873659 -0.2077305832708921
 -0.2326039194248619 -0.2267058774815324
 -0.2847219849820267 -0.2667253152678966
 -0.2505224930800871 -0.2245349253221882
 -0.2254464244840955 -0.2789071967918799
 -0.2573454202063604 -0.2529071312222904
 -0.2158328643543771 -0.2599348739411488
 -0.2236892735707513 -0.2403381951663595
 -0.2296347704042074 -0.2579096132865597
 -0.2488057777915944 -0.2217074821977594
 -0.2746289159880633 -0.2580077563639613


# name: PF
# type: matrix
# rows: 61
# columns: 2
 2.955463857173082 1.531267809240507
 1.899171595498258 2.742767369147136
 2.508372121227942 3.404670301715745
 2.378301786541528 3.016306507179016
 2.030480409946912 2.537996366341994
 2.116800287056088 2.616520888236991
 2.229176836324485 2.859509786341257
 2.175119623109685 2.904508954297604
 2.150942169354775 2.682443236987303
 2.03491540697242 2.715540268883408
 2.190931121013619 2.756274389543126
 2.153727050400751 2.758806098847312
 1.99224191634321 2.79023933127818
 2.051918631607188 2.636551451865774
 2.107048818776589 2.799131655887984
 2.101318804071221 2.5284086706582
 2.208526104532906 2.744887179847029
 2.191990771152399 2.771650755016573
 1.922867728001586 2.6373076391394
 1.995704410759246 2.848949643647882
 2.467588697488297 2.848396612992543
 2.359428746739695 2.735595327231588
 2.50682390410855 2.791629591835113
 2.366128083386973 2.79552190681941
 2.319628029307123 2.746382001349776
 2.320214570074879 2.71741527079206
 2.294102050049183 2.689875318584622
 2.355851001429066 2.629716419632767
 2.456271536357266 2.637104895116884
 2.47977651768112 2.57319213322487
 2.758987251294116 2.691099172913732
 2.487512793910471 2.886956748761739
 2.694461870032049 2.610163793280281
 2.745845199300204 2.651409514694222
 2.536223432453729 2.659955638537411
 2.753958240675061 2.670236131446659
 2.456868631914232 2.619906487335386
 2.611901543576238 2.778624598095635
 2.916366630542469 2.580632449853867
 2.8640201716163 2.648124668844263
 2.797869987552826 2.778549596851964
 2.718967086645174 2.731158026432168
 2.712951859591096 2.718161336252767
 2.823857261023404 2.913119274548392
 2.837071939029422 2.84279229534192
 2.932651359493944 2.984625979849289
 2.891393033066224 2.892950361111899
 2.736564197787986 2.736037771193785
 2.770133034460747 2.793209429241521
 2.936675265430509 2.854194249104826
 2.823694396621202 2.695607160006475
 2.802263736785823 2.779125159007438
 2.997763863857561 2.941337914888863
 2.884993021435239 2.7807135528886
 2.776726107698993 2.98024201483807
 2.901056781424193 2.888571178335174
 2.74378165019792 2.918872074294922
 2.773613442451295 2.839348928076652
 2.795246070499881 2.901502400520069
 2.864962717761527 2.767480685807697
 2.950248260749931 2.895604474879761




# name: options
# type: scalar struct
# ndims: 2
 1 1
# length: 4
# name: model
# type: scalar struct
# ndims: 2
 1 1
# length: 13
# name: X
# type: scalar
141


# name: Y
# type: scalar
2


# name: Z
# type: scalar
12


# name: Pxyz
# type: matrix
# ndims: 3
 141 2 12
 0.0009618257036037913
 0.0009986656418444161
 0.0002618696206911466
 0.0002959971454521863
 7.745410347868224e-05
 0.0002208282181034225
 7.507090029472279e-05
 0.0005421787243507757
 6.255908357893565e-05
 7.646110215203248e-05
 2.703170278102158e-05
 0.0002323623104360467
 2.432853250291942e-05
 2.838328792007266e-05
 6.255908357893565e-05
 2.838328792007266e-05
 6.255908357893565e-05
 2.432853250291942e-05
 1.621902166861295e-05
 2.432853250291942e-05
 1.621902166861295e-05
 2.703170278102158e-05
 0.0001140399961074348
 1.621902166861295e-05
 1.621902166861295e-05
 1.621902166861295e-05
 2.432853250291942e-05
 1.621902166861295e-05
 2.432853250291942e-05
 2.432853250291942e-05
 1.621902166861295e-05
 0.0001064373297002725
 6.255908357893565e-05
 2.703170278102158e-05
 2.703170278102158e-05
 2.432853250291942e-05
 1.621902166861295e-05
 2.838328792007266e-05
 1.621902166861295e-05
 2.973487305912374e-05
 2.703170278102158e-05
 1.621902166861295e-05
 6.255908357893565e-05
 2.432853250291942e-05
 1.621902166861295e-05
 1.621902166861295e-05
 1.621902166861295e-05
 1.621902166861295e-05
 1.621902166861295e-05
 6.255908357893565e-05
 1.621902166861295e-05
 1.621902166861295e-05
 1.621902166861295e-05
 1.621902166861295e-05
 1.621902166861295e-05
 6.951009286548406e-05
 1.621902166861295e-05
 2.432853250291942e-05
 1.621902166861295e-05
 1.621902166861295e-05
 1.621902166861295e-05
 1.621902166861295e-05
 1.621902166861295e-05
 0.003870125855130076
 0.002501847696390091
 0.001004491770572434
 0.003137294597675583
 0.001041246202425681
 0.002533844590131568
 6.255908357893565e-05
 6.951009286548406e-05
 1.621902166861295e-05
 2.703170278102158e-05
 7.87781052475486e-05
 0.0001165742182431556
 1.621902166861295e-05
 1.621902166861295e-05
 6.255908357893565e-05
 6.255908357893565e-05
 7.298559750875827e-05
 1.621902166861295e-05
 6.255908357893565e-05
 0.0004216945633839366
 0.0002046458910539693
 1.621902166861295e-05
 2.432853250291942e-05
 1.621902166861295e-05
 6.951009286548406e-05
 1.621902166861295e-05
 7.507090029472279e-05
 6.255908357893565e-05
 2.432853250291942e-05
 2.432853250291942e-05
 2.703170278102158e-05
 1.621902166861295e-05
 2.432853250291942e-05
 2.919423900350331e-05
 3.081614117036461e-05
 1.621902166861295e-05
 1.621902166861295e-05
 6.951009286548406e-05
 2.432853250291942e-05
 2.432853250291942e-05
 1.621902166861295e-05
 1.621902166861295e-05
 1.621902166861295e-05
 7.298559750875827e-05
 6.255908357893565e-05
 1.621902166861295e-05
 1.621902166861295e-05
 1.621902166861295e-05
 6.951009286548406e-05
 0.0001094783962631374
 1.621902166861295e-05
 1.621902166861295e-05
 1.621902166861295e-05
 2.432853250291942e-05
 7.298559750875827e-05
 1.621902166861295e-05
 1.621902166861295e-05
 2.432853250291942e-05
 1.621902166861295e-05
 1.621902166861295e-05
 0.003042412396577856
 0.002288410363379065
 0.0002362570823061287
 0.0003095906741495391
 0.0009980448706606746
 0.0003462909039610632
 1.621902166861295e-05
 1.621902166861295e-05
 1.621902166861295e-05
 1.621902166861295e-05
 1.621902166861295e-05
 1.621902166861295e-05
 1.621902166861295e-05
 2.432853250291942e-05
 1.621902166861295e-05
 1.621902166861295e-05
 2.432853250291942e-05
 1.621902166861295e-05
 0.000283967588683024
 0.00094559645314737
 0.0001466469875870421
 0.001479985727260932
 0.0001807262414502586
 0.0009227464827893009
 0.0001362397820163488
 7.745410347868224e-05
 2.432853250291942e-05
 0.0001605683145192682
 0.0001013688854288309
 0.0001807262414502586
 6.255908357893565e-05
 0.0001324553436270057
 2.432853250291942e-05
 0.0001324553436270057
 2.432853250291942e-05
 6.255908357893565e-05
 1.621902166861295e-05
 6.255908357893565e-05
 1.621902166861295e-05
 0.0001013688854288309
 0.0001824639937718957
 1.621902166861295e-05
 1.621902166861295e-05
 1.621902166861295e-05
 6.255908357893565e-05
 1.621902166861295e-05
 6.255908357893565e-05
 6.255908357893565e-05
 1.621902166861295e-05
 7.298559750875827e-05
 2.432853250291942e-05
 0.0001013688854288309
 0.0001013688854288309
 6.255908357893565e-05
 1.621902166861295e-05
 0.0001324553436270057
 1.621902166861295e-05
 0.0001784092383547424
 0.0001013688854288309
 1.621902166861295e-05
 2.432853250291942e-05
 6.255908357893565e-05
 1.621902166861295e-05
 1.621902166861295e-05
 1.621902166861295e-05
 1.621902166861295e-05
 1.621902166861295e-05
 2.432853250291942e-05
 1.621902166861295e-05
 1.621902166861295e-05
 1.621902166861295e-05
 1.621902166861295e-05
 1.621902166861295e-05
 6.951009286548406e-05
 1.621902166861295e-05
 6.255908357893565e-05
 1.621902166861295e-05
 1.621902166861295e-05
 1.621902166861295e-05
 1.621902166861295e-05
 1.621902166861295e-05
 0.000304894624950555
 0.0008948606690632657
 0.0008026760723752326
 0.001539055003708349
 0.001047705060448246
 0.002614600398674669
 2.432853250291942e-05
 6.951009286548406e-05
 1.621902166861295e-05
 0.0001013688854288309
 0.0002120948987434001
 0.0002362570823061287
 1.621902166861295e-05
 1.621902166861295e-05
 2.432853250291942e-05
 2.432853250291942e-05
 0.0001064373297002725
 1.621902166861295e-05
 2.432853250291942e-05
 0.0001405648544613122
 0.0002479363680076936
 1.621902166861295e-05
 6.255908357893565e-05
 1.621902166861295e-05
 6.951009286548406e-05
 1.621902166861295e-05
 0.0001362397820163488
 2.432853250291942e-05
 6.255908357893565e-05
 6.255908357893565e-05
 0.0001013688854288309
 1.621902166861295e-05
 6.255908357893565e-05
 0.0001576488906189179
 0.000234202672894771
 1.621902166861295e-05
 1.621902166861295e-05
 6.951009286548406e-05
 6.255908357893565e-05
 6.255908357893565e-05
 1.621902166861295e-05
 1.621902166861295e-05
 1.621902166861295e-05
 0.0001064373297002725
 2.432853250291942e-05
 1.621902166861295e-05
 1.621902166861295e-05
 1.621902166861295e-05
 6.951009286548406e-05
 0.0001094783962631374
 1.621902166861295e-05
 1.621902166861295e-05
 1.621902166861295e-05
 6.255908357893565e-05
 0.0001064373297002725
 1.621902166861295e-05
 1.621902166861295e-05
 6.255908357893565e-05
 1.621902166861295e-05
 1.621902166861295e-05
 0.0002221820153294442
 0.0005759944452042545
 0.0001165742182431556
 0.0001485742478779112
 0.001520618346231425
 0.001746082783797527
 1.621902166861295e-05
 1.621902166861295e-05
 1.621902166861295e-05
 1.621902166861295e-05
 1.621902166861295e-05
 1.621902166861295e-05
 1.621902166861295e-05
 6.255908357893565e-05
 1.621902166861295e-05
 1.621902166861295e-05
 6.255908357893565e-05
 1.621902166861295e-05
 0.006732779925226538
 0.01298265334397741
 0.002880565827602613
 0.002663974309069677
 0.0002323623104360467
 0.001104141090517112
 7.507090029472279e-05
 0.00126508369015181
 6.255908357893565e-05
 0.0002293833064560974
 2.703170278102158e-05
 7.745410347868224e-05
 2.432853250291942e-05
 2.838328792007266e-05
 6.255908357893565e-05
 2.838328792007266e-05
 6.255908357893565e-05
 2.432853250291942e-05
 1.621902166861295e-05
 2.432853250291942e-05
 1.621902166861295e-05
 2.703170278102158e-05
 0.0001140399961074348
 1.621902166861295e-05
 1.621902166861295e-05
 1.621902166861295e-05
 2.432853250291942e-05
 1.621902166861295e-05
 2.432853250291942e-05
 2.432853250291942e-05
 1.621902166861295e-05
 0.0003193119891008174
 6.255908357893565e-05
 2.703170278102158e-05
 2.703170278102158e-05
 2.432853250291942e-05
 1.621902166861295e-05
 2.838328792007266e-05
 1.621902166861295e-05
 2.973487305912374e-05
 2.703170278102158e-05
 1.621902166861295e-05
 0.000187677250736807
 2.432853250291942e-05
 1.621902166861295e-05
 1.621902166861295e-05
 1.621902166861295e-05
 1.621902166861295e-05
 1.621902166861295e-05
 0.000187677250736807
 1.621902166861295e-05
 1.621902166861295e-05
 1.621902166861295e-05
 1.621902166861295e-05
 1.621902166861295e-05
 0.0002085302785964522
 1.621902166861295e-05
 2.432853250291942e-05
 1.621902166861295e-05
 1.621902166861295e-05
 1.621902166861295e-05
 1.621902166861295e-05
 1.621902166861295e-05
 0.008795740579841081
 0.01393886573703051
 0.006361781213625416
 0.01010906037028799
 0.01978367784608794
 0.02425251250554501
 6.255908357893565e-05
 6.951009286548406e-05
 1.621902166861295e-05
 2.703170278102158e-05
 0.0002363343157426458
 0.000582871091215778
 1.621902166861295e-05
 1.621902166861295e-05
 0.000187677250736807
 0.000187677250736807
 7.298559750875827e-05
 1.621902166861295e-05
 6.255908357893565e-05
 0.0007028242723065612
 0.001841813019485723
 1.621902166861295e-05
 2.432853250291942e-05
 1.621902166861295e-05
 6.951009286548406e-05
 1.621902166861295e-05
 0.0002252127008841684
 0.000187677250736807
 2.432853250291942e-05
 2.432853250291942e-05
 2.703170278102158e-05
 1.621902166861295e-05
 2.432853250291942e-05
 2.919423900350331e-05
 3.081614117036461e-05
 1.621902166861295e-05
 1.621902166861295e-05
 0.0002085302785964522
 2.432853250291942e-05
 2.432853250291942e-05
 1.621902166861295e-05
 1.621902166861295e-05
 1.621902166861295e-05
 0.0002189567925262748
 0.000187677250736807
 1.621902166861295e-05
 1.621902166861295e-05
 1.621902166861295e-05
 6.951009286548406e-05
 0.0005473919813156871
 1.621902166861295e-05
 1.621902166861295e-05
 1.621902166861295e-05
 2.432853250291942e-05
 0.0002189567925262748
 1.621902166861295e-05
 1.621902166861295e-05
 2.432853250291942e-05
 1.621902166861295e-05
 1.621902166861295e-05
 0.005070687327629759
 0.0009807472985910277
 0.001181285411530643
 0.002786316067345852
 0.01031313033016031
 0.01212018163863721
 1.621902166861295e-05
 1.621902166861295e-05
 1.621902166861295e-05
 1.621902166861295e-05
 1.621902166861295e-05
 1.621902166861295e-05
 1.621902166861295e-05
 2.432853250291942e-05
 1.621902166861295e-05
 1.621902166861295e-05
 2.432853250291942e-05
 1.621902166861295e-05
 0.00425951383024536
 0.007249572807463169
 0.0007332349379352105
 0.005031951472687168
 0.001626536173052327
 0.007689554023244176
 0.000681198910081744
 0.0002323623104360467
 2.432853250291942e-05
 0.001445114830673414
 0.0003041066562864928
 0.001626536173052327
 6.255908357893565e-05
 0.0009271874053890403
 2.432853250291942e-05
 0.0003973660308810172
 2.432853250291942e-05
 0.000187677250736807
 1.621902166861295e-05
 0.000187677250736807
 1.621902166861295e-05
 0.0001013688854288309
 0.00127724795640327
 1.621902166861295e-05
 1.621902166861295e-05
 1.621902166861295e-05
 0.000187677250736807
 1.621902166861295e-05
 6.255908357893565e-05
 6.255908357893565e-05
 1.621902166861295e-05
 0.0002189567925262748
 2.432853250291942e-05
 0.0003041066562864928
 0.0003041066562864928
 0.000187677250736807
 1.621902166861295e-05
 0.0009271874053890403
 1.621902166861295e-05
 0.001248864668483197
 0.0005068444271441547
 1.621902166861295e-05
 2.432853250291942e-05
 0.000187677250736807
 1.621902166861295e-05
 1.621902166861295e-05
 1.621902166861295e-05
 1.621902166861295e-05
 1.621902166861295e-05
 2.432853250291942e-05
 1.621902166861295e-05
 1.621902166861295e-05
 1.621902166861295e-05
 1.621902166861295e-05
 1.621902166861295e-05
 0.0002085302785964522
 1.621902166861295e-05
 0.000187677250736807
 1.621902166861295e-05
 1.621902166861295e-05
 1.621902166861295e-05
 1.621902166861295e-05
 1.621902166861295e-05
 0.002744051624554995
 0.002088008227814287
 0.001337793453958721
 0.002770299006675029
 0.0157155759067237
 0.05565363705750367
 2.432853250291942e-05
 6.951009286548406e-05
 1.621902166861295e-05
 0.0005068444271441547
 0.002333043886177401
 0.002598827905367415
 1.621902166861295e-05
 1.621902166861295e-05
 2.432853250291942e-05
 2.432853250291942e-05
 0.0003193119891008174
 1.621902166861295e-05
 2.432853250291942e-05
 0.0007028242723065612
 0.002727300048084629
 1.621902166861295e-05
 0.000187677250736807
 1.621902166861295e-05
 0.0002085302785964522
 1.621902166861295e-05
 0.0009536784741144414
 2.432853250291942e-05
 6.255908357893565e-05
 0.000187677250736807
 0.0005068444271441547
 1.621902166861295e-05
 0.000187677250736807
 0.0007882444530945894
 0.003513040093421565
 1.621902166861295e-05
 1.621902166861295e-05
 0.0002085302785964522
 0.000187677250736807
 0.000187677250736807
 1.621902166861295e-05
 1.621902166861295e-05
 1.621902166861295e-05
 0.0005321866485013623
 2.432853250291942e-05
 1.621902166861295e-05
 1.621902166861295e-05
 1.621902166861295e-05
 0.0002085302785964522
 0.0003284351887894122
 1.621902166861295e-05
 1.621902166861295e-05
 1.621902166861295e-05
 6.255908357893565e-05
 0.0005321866485013623
 1.621902166861295e-05
 1.621902166861295e-05
 0.000187677250736807
 1.621902166861295e-05
 1.621902166861295e-05
 0.0006665460459883326
 0.0005759944452042545
 0.0003497226547294667
 0.0004457227436337337
 0.006994844392664557
 0.01990534373529181
 1.621902166861295e-05
 1.621902166861295e-05
 1.621902166861295e-05
 1.621902166861295e-05
 1.621902166861295e-05
 1.621902166861295e-05
 1.621902166861295e-05
 6.255908357893565e-05
 1.621902166861295e-05
 1.621902166861295e-05
 6.255908357893565e-05
 1.621902166861295e-05
 0.006091562789490678
 0.003661774020096193
 0.001833087344838026
 0.003847962890878422
 7.745410347868224e-05
 0.001104141090517112
 7.507090029472279e-05
 0.0005421787243507757
 6.255908357893565e-05
 7.646110215203248e-05
 2.703170278102158e-05
 7.745410347868224e-05
 2.432853250291942e-05
 2.838328792007266e-05
 6.255908357893565e-05
 2.838328792007266e-05
 0.000187677250736807
 2.432853250291942e-05
 1.621902166861295e-05
 2.432853250291942e-05
 1.621902166861295e-05
 2.703170278102158e-05
 0.0001140399961074348
 1.621902166861295e-05
 1.621902166861295e-05
 1.621902166861295e-05
 2.432853250291942e-05
 1.621902166861295e-05
 2.432853250291942e-05
 2.432853250291942e-05
 1.621902166861295e-05
 0.0001064373297002725
 0.000187677250736807
 2.703170278102158e-05
 2.703170278102158e-05
 2.432853250291942e-05
 1.621902166861295e-05
 2.838328792007266e-05
 1.621902166861295e-05
 2.973487305912374e-05
 2.703170278102158e-05
 1.621902166861295e-05
 6.255908357893565e-05
 2.432853250291942e-05
 1.621902166861295e-05
 1.621902166861295e-05
 1.621902166861295e-05
 1.621902166861295e-05
 1.621902166861295e-05
 6.255908357893565e-05
 1.621902166861295e-05
 1.621902166861295e-05
 1.621902166861295e-05
 1.621902166861295e-05
 1.621902166861295e-05
 6.951009286548406e-05
 1.621902166861295e-05
 2.432853250291942e-05
 1.621902166861295e-05
 1.621902166861295e-05
 1.621902166861295e-05
 1.621902166861295e-05
 1.621902166861295e-05
 0.01090671831900294
 0.01393886573703051
 0.006361781213625416
 0.01010906037028799
 0.007982887551930221
 0.01773691213092098
 6.255908357893565e-05
 6.951009286548406e-05
 1.621902166861295e-05
 2.703170278102158e-05
 7.87781052475486e-05
 0.0001165742182431556
 1.621902166861295e-05
 1.621902166861295e-05
 6.255908357893565e-05
 6.255908357893565e-05
 0.0002189567925262748
 1.621902166861295e-05
 6.255908357893565e-05
 0.0001405648544613122
 0.0006139376731619078
 1.621902166861295e-05
 2.432853250291942e-05
 1.621902166861295e-05
 6.951009286548406e-05
 1.621902166861295e-05
 7.507090029472279e-05
 6.255908357893565e-05
 2.432853250291942e-05
 2.432853250291942e-05
 2.703170278102158e-05
 1.621902166861295e-05
 2.432853250291942e-05
 2.919423900350331e-05
 3.081614117036461e-05
 1.621902166861295e-05
 1.621902166861295e-05
 6.951009286548406e-05
 2.432853250291942e-05
 2.432853250291942e-05
 1.621902166861295e-05
 1.621902166861295e-05
 1.621902166861295e-05
 7.298559750875827e-05
 6.255908357893565e-05
 1.621902166861295e-05
 1.621902166861295e-05
 1.621902166861295e-05
 0.0002085302785964522
 0.0001094783962631374
 1.621902166861295e-05
 1.621902166861295e-05
 1.621902166861295e-05
 2.432853250291942e-05
 7.298559750875827e-05
 1.621902166861295e-05
 1.621902166861295e-05
 2.432853250291942e-05
 1.621902166861295e-05
 1.621902166861295e-05
 0.009803328833417535
 0.01078822028450131
 0.002126313740755158
 0.006501404157140322
 0.008982403835946073
 0.01073501802279296
 1.621902166861295e-05
 1.621902166861295e-05
 1.621902166861295e-05
 1.621902166861295e-05
 1.621902166861295e-05
 1.621902166861295e-05
 1.621902166861295e-05
 2.432853250291942e-05
 1.621902166861295e-05
 1.621902166861295e-05
 2.432853250291942e-05
 1.621902166861295e-05
 0.001987773120781168
 0.00220639172401053
 0.0001466469875870421
 0.002663974309069677
 0.0001807262414502586
 0.002153075126508369
 0.0004087193460490463
 7.745410347868224e-05
 2.432853250291942e-05
 0.0001605683145192682
 0.0003041066562864928
 0.0005421787243507757
 6.255908357893565e-05
 0.0001324553436270057
 2.432853250291942e-05
 0.0006622767181350288
 2.432853250291942e-05
 6.255908357893565e-05
 1.621902166861295e-05
 6.255908357893565e-05
 1.621902166861295e-05
 0.0005068444271441547
 0.0001824639937718957
 1.621902166861295e-05
 1.621902166861295e-05
 1.621902166861295e-05
 6.255908357893565e-05
 1.621902166861295e-05
 0.000187677250736807
 0.000187677250736807
 1.621902166861295e-05
 7.298559750875827e-05
 2.432853250291942e-05
 0.0003041066562864928
 0.0003041066562864928
 6.255908357893565e-05
 1.621902166861295e-05
 0.0001324553436270057
 1.621902166861295e-05
 0.0001784092383547424
 0.0001013688854288309
 1.621902166861295e-05
 2.432853250291942e-05
 6.255908357893565e-05
 1.621902166861295e-05
 1.621902166861295e-05
 1.621902166861295e-05
 1.621902166861295e-05
 1.621902166861295e-05
 2.432853250291942e-05
 1.621902166861295e-05
 1.621902166861295e-05
 1.621902166861295e-05
 1.621902166861295e-05
 1.621902166861295e-05
 6.951009286548406e-05
 1.621902166861295e-05
 6.255908357893565e-05
 1.621902166861295e-05
 1.621902166861295e-05
 1.621902166861295e-05
 1.621902166861295e-05
 1.621902166861295e-05
 0.003963630124357215
 0.00626402468344286
 0.002943145598709187
 0.004617165011125048
 0.009429345544034217
 0.01456705936404458
 2.432853250291942e-05
 6.951009286548406e-05
 1.621902166861295e-05
 0.0001013688854288309
 0.0006362846962302003
 0.0007087712469183859
 1.621902166861295e-05
 1.621902166861295e-05
 2.432853250291942e-05
 2.432853250291942e-05
 0.0003193119891008174
 1.621902166861295e-05
 2.432853250291942e-05
 0.0001405648544613122
 0.001239681840038468
 1.621902166861295e-05
 6.255908357893565e-05
 1.621902166861295e-05
 6.951009286548406e-05
 1.621902166861295e-05
 0.0001362397820163488
 2.432853250291942e-05
 0.000187677250736807
 6.255908357893565e-05
 0.0001013688854288309
 1.621902166861295e-05
 6.255908357893565e-05
 0.0001576488906189179
 0.000702608018684313
 1.621902166861295e-05
 1.621902166861295e-05
 6.951009286548406e-05
 6.255908357893565e-05
 6.255908357893565e-05
 1.621902166861295e-05
 1.621902166861295e-05
 1.621902166861295e-05
 0.0001064373297002725
 2.432853250291942e-05
 1.621902166861295e-05
 1.621902166861295e-05
 1.621902166861295e-05
 6.951009286548406e-05
 0.0001094783962631374
 1.621902166861295e-05
 1.621902166861295e-05
 1.621902166861295e-05
 6.255908357893565e-05
 0.0001064373297002725
 1.621902166861295e-05
 1.621902166861295e-05
 6.255908357893565e-05
 1.621902166861295e-05
 1.621902166861295e-05
 0.001999638137964997
 0.0005759944452042545
 0.0003497226547294667
 0.0004457227436337337
 0.002737113023216566
 0.008730413918987635
 1.621902166861295e-05
 1.621902166861295e-05
 1.621902166861295e-05
 1.621902166861295e-05
 1.621902166861295e-05
 1.621902166861295e-05
 1.621902166861295e-05
 0.000187677250736807
 1.621902166861295e-05
 1.621902166861295e-05
 6.255908357893565e-05
 1.621902166861295e-05
 0.001603042839339652
 0.0003328885472814721
 0.0002618696206911466
 0.001479985727260932
 7.745410347868224e-05
 0.001104141090517112
 0.0002252127008841684
 0.0001807262414502586
 6.255908357893565e-05
 7.646110215203248e-05
 2.703170278102158e-05
 7.745410347868224e-05
 2.432853250291942e-05
 2.838328792007266e-05
 6.255908357893565e-05
 2.838328792007266e-05
 6.255908357893565e-05
 2.432853250291942e-05
 1.621902166861295e-05
 2.432853250291942e-05
 1.621902166861295e-05
 2.703170278102158e-05
 0.0003421199883223044
 1.621902166861295e-05
 1.621902166861295e-05
 1.621902166861295e-05
 2.432853250291942e-05
 1.621902166861295e-05
 2.432853250291942e-05
 2.432853250291942e-05
 1.621902166861295e-05
 0.0001064373297002725
 6.255908357893565e-05
 2.703170278102158e-05
 2.703170278102158e-05
 2.432853250291942e-05
 1.621902166861295e-05
 2.838328792007266e-05
 1.621902166861295e-05
 2.973487305912374e-05
 2.703170278102158e-05
 1.621902166861295e-05
 6.255908357893565e-05
 2.432853250291942e-05
 1.621902166861295e-05
 1.621902166861295e-05
 1.621902166861295e-05
 1.621902166861295e-05
 1.621902166861295e-05
 6.255908357893565e-05
 1.621902166861295e-05
 1.621902166861295e-05
 1.621902166861295e-05
 1.621902166861295e-05
 1.621902166861295e-05
 6.951009286548406e-05
 1.621902166861295e-05
 2.432853250291942e-05
 1.621902166861295e-05
 1.621902166861295e-05
 1.621902166861295e-05
 1.621902166861295e-05
 1.621902166861295e-05
 0.005277444347904648
 0.003216661323930117
 0.003683136492098925
 0.005926000906720544
 0.002429574472326589
 0.004705711381672912
 6.255908357893565e-05
 0.0002085302785964522
 1.621902166861295e-05
 2.703170278102158e-05
 7.87781052475486e-05
 0.0001165742182431556
 1.621902166861295e-05
 1.621902166861295e-05
 6.255908357893565e-05
 6.255908357893565e-05
 7.298559750875827e-05
 1.621902166861295e-05
 6.255908357893565e-05
 0.0001405648544613122
 0.0002046458910539693
 1.621902166861295e-05
 2.432853250291942e-05
 1.621902166861295e-05
 6.951009286548406e-05
 1.621902166861295e-05
 7.507090029472279e-05
 6.255908357893565e-05
 2.432853250291942e-05
 2.432853250291942e-05
 2.703170278102158e-05
 1.621902166861295e-05
 2.432853250291942e-05
 2.919423900350331e-05
 3.081614117036461e-05
 1.621902166861295e-05
 1.621902166861295e-05
 6.951009286548406e-05
 2.432853250291942e-05
 2.432853250291942e-05
 1.621902166861295e-05
 1.621902166861295e-05
 1.621902166861295e-05
 7.298559750875827e-05
 6.255908357893565e-05
 1.621902166861295e-05
 1.621902166861295e-05
 1.621902166861295e-05
 6.951009286548406e-05
 0.0001094783962631374
 1.621902166861295e-05
 1.621902166861295e-05
 1.621902166861295e-05
 2.432853250291942e-05
 7.298559750875827e-05
 1.621902166861295e-05
 1.621902166861295e-05
 2.432853250291942e-05
 1.621902166861295e-05
 1.621902166861295e-05
 0.002366320752893888
 0.002288410363379065
 0.0007087712469183859
 0.0009287720224486174
 0.0009980448706606746
 0.001731454519805316
 1.621902166861295e-05