# Created by Octave 4.0.0, Wed May 09 19:09:11 2018 CEST <olethros@olethros-OptiPlex-9010>
# name: results
# type: struct
# ndims: 2
 1 5
# length: 8
# name: options
# type: cell
# rows: 1
# columns: 5
# name: <cell-element>
# type: scalar struct
# ndims: 2
 1 1
# length: 8
# name: A
# type: scalar
2


# name: X
# type: scalar
8


# name: Y
# type: scalar
2


# name: Z
# type: scalar
2


# name: lambda
# type: scalar
0


# name: n_iter
# type: scalar
10000


# name: horizon
# type: scalar
1000


# name: n_samples
# type: scalar
1





# name: <cell-element>
# type: scalar struct
# ndims: 2
 1 1
# length: 8
# name: A
# type: scalar
2


# name: X
# type: scalar
8


# name: Y
# type: scalar
2


# name: Z
# type: scalar
2


# name: lambda
# type: scalar
0.25


# name: n_iter
# type: scalar
10000


# name: horizon
# type: scalar
1000


# name: n_samples
# type: scalar
1





# name: <cell-element>
# type: scalar struct
# ndims: 2
 1 1
# length: 8
# name: A
# type: scalar
2


# name: X
# type: scalar
8


# name: Y
# type: scalar
2


# name: Z
# type: scalar
2


# name: lambda
# type: scalar
0.5


# name: n_iter
# type: scalar
10000


# name: horizon
# type: scalar
1000


# name: n_samples
# type: scalar
1





# name: <cell-element>
# type: scalar struct
# ndims: 2
 1 1
# length: 8
# name: A
# type: scalar
2


# name: X
# type: scalar
8


# name: Y
# type: scalar
2


# name: Z
# type: scalar
2


# name: lambda
# type: scalar
0.75


# name: n_iter
# type: scalar
10000


# name: horizon
# type: scalar
1000


# name: n_samples
# type: scalar
1





# name: <cell-element>
# type: scalar struct
# ndims: 2
 1 1
# length: 8
# name: A
# type: scalar
2


# name: X
# type: scalar
8


# name: Y
# type: scalar
2


# name: Z
# type: scalar
2


# name: lambda
# type: scalar
1


# name: n_iter
# type: scalar
10000


# name: horizon
# type: scalar
1000


# name: n_samples
# type: scalar
1







# name: PU
# type: cell
# rows: 1
# columns: 5
# name: <cell-element>
# type: matrix
# rows: 1000
# columns: 2
 0.4592157541110875 0.5119431662956609
 0.4690119644323529 0.5448017125046536
 0.4932229178171972 0.5648917066105379
 0.4154216054710185 0.4374164869073284
 0.3585652802162427 0.4914219343293996
 0.3748109227996467 0.5817182469910449
 0.6407659749417182 0.4939048144293936
 0.6287621362150281 0.6005068324628079
 0.4191487511888167 0.547933721970206
 0.501350841270258 0.5764240769631863
 0.4592157541110875 0.5898967846351649
 0.4167588047685929 0.6036516783675439
 0.5569898547584686 0.6009352348266915
 0.7185672872878969 0.5933335659702434
 0.5309880355676472 0.6129928429626751
 0.5925473441034939 0.5541744458426893
 0.6888019274385012 0.4833792731830402
 0.4792249373530658 0.6398629374575993
 0.6510732046288273 0.64109466040763
 0.6510732046288273 0.5984152033569845
 0.5472336781510512 0.6380670862027898
 0.6110006150923225 0.7036589849898739
 0.7192360321299361 0.6900752923395627
 0.659196240906463 0.7128403766478747
 0.5163791720870968 0.7136468797042582
 0.6742294588987269 0.6914854711252484
 0.5732718922826485 0.6885291876250775
 0.5532991039814462 0.6722471577175878
 0.6823524951763625 0.7024972895488323
 0.583028068890066 0.689021356828584
 0.5570262496992445 0.6873511645210629
 0.6548003503466254 0.6787043848004836
 0.6141896676752537 0.6718820644050812
 0.614858412517293 0.6818076280253872
 0.7148401415700986 0.7185672872878969
 0.7185672872878969 0.7185672872878969
 0.5607170004762668 0.7185672872878969
 0.6548003503466254 0.7185672872878969
 0.7192360321299361 0.7185672872878969
 0.583028068890066 0.7185672872878969
 0.6554690951886647 0.7185672872878969
 0.6925290731562995 0.7185672872878969
 0.6823524951763625 0.7185672872878969
 0.6548003503466254 0.7185672872878969
 0.6779566046165251 0.7185672872878969
 0.6548003503466254 0.7185672872878969
 0.7185672872878969 0.7185672872878969
 0.4889811139604832 0.7185672872878969
 0.6185855582350912 0.7185672872878969
 0.536388355329075 0.7185672872878969
 0.5089539022616855 0.7185672872878969
 0.5229882776665928 0.7185672872878969
 0.5911511051677016 0.7185672872878969
 0.5867552146078642 0.7185672872878969
 0.5881514535436564 0.7185672872878969
 0.5424173862186942 0.7185672872878969
 0.5867552146078642 0.7185672872878969
 0.4483704312891114 0.7185672872878969
 0.583028068890066 0.7185672872878969
 0.7185672872878969 0.7185672872878969
 0.4683432195903137 0.7185672872878969
 0.5867552146078642 0.7185672872878969
 0.5607170004762668 0.7185672872878969
 0.5089539022616855 0.7185672872878969
 0.4646160738725155 0.7185672872878969
 0.5461445319364924 0.7185672872878969
 0.6287621362150281 0.7185672872878969
 0.5461445319364924 0.7185672872878969
 0.7185672872878969 0.7185672872878969
 0.5867552146078642 0.7185672872878969
 0.7148401415700986 0.7185672872878969
 0.6742294588987269 0.7185672872878969
 0.6548003503466254 0.7185672872878969
 0.5867552146078642 0.7185672872878969
 0.4483704312891114 0.7185672872878969
 0.6001552922703464 0.7185672872878969
 0.7185672872878969 0.7185672872878969
 0.4451869653204141 0.7185672872878969
 0.5769990380004467 0.7185672872878969
 0.6407659749417182 0.7185672872878969
 0.5229882776665928 0.7185672872878969
 0.7185672872878969 0.7185672872878969
 0.7185672872878969 0.7185672872878969
 0.7148401415700986 0.7185672872878969
 0.6742294588987269 0.7185672872878969
 0.7185672872878969 0.7185672872878969
 0.4683432195903137 0.7185672872878969
 0.5509608238688494 0.7185672872878969
 0.5613857453183061 0.7185672872878969
 0.6554690951886647 0.7185672872878969
 0.7185672872878969 0.7185672872878969
 0.6370388292239199 0.7185672872878969
 0.7229631778477342 0.7172815728823428
 0.659196240906463 0.7174560309865871
 0.7148401415700986 0.7169819052602818
 0.7185672872878969 0.7170472170665888
 0.583028068890066 0.715307289483981
 0.7148401415700986 0.7165241385728226
 0.7148401415700986 0.7172178658075309
 0.7185672872878969 0.7168328347343252
 0.7148401415700986 0.7165331373425891
 0.659196240906463 0.7159328735391918
 0.6554690951886647 0.7168706729706867
 0.6370388292239199 0.7172594453226139
 0.5801825039691441 0.7153229352096698
 0.7185672872878969 0.7160983985542287
 0.5964281465525482 0.716315851803338
 0.5867552146078642 0.7152863425651809
 0.6548003503466254 0.7167640773977949
 0.7185672872878969 0.7148401415700986
 0.6370388292239199 0.7148401415700986
 0.7185672872878969 0.7148401415700986
 0.7185672872878969 0.7148401415700986
 0.6407659749417182 0.7148401415700986
 0.7148401415700986 0.7148401415700986
 0.6207931866405157 0.7148401415700986
 0.7148401415700986 0.7148401415700986
 0.7185672872878969 0.7148401415700986
 0.6370388292239199 0.7148401415700986
 0.5867552146078642 0.7148401415700986
 0.6510732046288273 0.7148401415700986
 0.7148401415700986 0.7148401415700986
 0.6407659749417182 0.7148401415700986
 0.6742294588987269 0.7148401415700986
 0.6407659749417182 0.7148401415700986
 0.583028068890066 0.7148401415700986
 0.7185672872878969 0.7148401415700986
 0.583028068890066 0.7148401415700986
 0.7148401415700986 0.7148401415700986
 0.7148401415700986 0.7148401415700986
 0.7185672872878969 0.7148401415700986
 0.5192611319487946 0.7148401415700986
 0.7185672872878969 0.7148401415700986
 0.7148401415700986 0.7148401415700986
 0.7148401415700986 0.7148401415700986
 0.7148401415700986 0.7148401415700986
 0.7185672872878969 0.7148401415700986
 0.6779566046165251 0.7148401415700986
 0.6287621362150281 0.7148401415700986
 0.7185672872878969 0.7148401415700986
 0.7185672872878969 0.7148401415700986
 0.7185672872878969 0.7148401415700986
 0.6407659749417182 0.7148401415700986
 0.6407659749417182 0.7148401415700986
 0.7148401415700986 0.7148401415700986
 0.6407659749417182 0.7148401415700986
 0.7148401415700986 0.7148401415700986
 0.7185672872878969 0.7148401415700986
 0.6779566046165251 0.7148401415700986
 0.5867552146078642 0.7148401415700986
 0.5769990380004467 0.7148401415700986
 0.5867552146078642 0.7148401415700986
 0.7148401415700986 0.7148401415700986
 0.5867552146078642 0.7148401415700986
 0.5461445319364924 0.7148401415700986
 0.7185672872878969 0.7148401415700986
 0.7185672872878969 0.7148401415700986
 0.583028068890066 0.7148401415700986
 0.6548003503466254 0.7148401415700986
 0.6370388292239199 0.7148401415700986
 0.6407659749417182 0.7148401415700986
 0.7185672872878969 0.7148401415700986
 0.7185672872878969 0.7148401415700986
 0.6407659749417182 0.7148401415700986
 0.7148401415700986 0.7148401415700986
 0.6510732046288273 0.7148401415700986
 0.6779566046165251 0.7148401415700986
 0.583028068890066 0.7148401415700986
 0.7185672872878969 0.7148401415700986
 0.7148401415700986 0.7148401415700986
 0.583028068890066 0.7148401415700986
 0.7148401415700986 0.7148401415700986
 0.6823524951763625 0.7148401415700986
 0.6407659749417182 0.7148401415700986
 0.7185672872878969 0.7148401415700986
 0.7148401415700986 0.7148401415700986
 0.7148401415700986 0.7148401415700986
 0.6779566046165251 0.7148401415700986
 0.7185672872878969 0.7148401415700986
 0.6548003503466254 0.7148401415700986
 0.6510732046288273 0.7148401415700986
 0.7148401415700986 0.7148401415700986
 0.7185672872878969 0.7148401415700986
 0.7185672872878969 0.7148401415700986
 0.6548003503466254 0.7148401415700986
 0.7185672872878969 0.7148401415700986
 0.6742294588987269 0.7148401415700986
 0.6510732046288273 0.7148401415700986
 0.7148401415700986 0.7148401415700986
 0.7148401415700986 0.7148401415700986
 0.6779566046165251 0.7148401415700986
 0.5192611319487946 0.7148401415700986
 0.7185672872878969 0.7148401415700986
 0.5867552146078642 0.7148401415700986
 0.7148401415700986 0.7148401415700986
 0.583028068890066 0.7148401415700986
 0.7148401415700986 0.7148401415700986
 0.7185672872878969 0.7148401415700986
 0.5461445319364924 0.7148401415700986
 0.583028068890066 0.7148401415700986
 0.7148401415700986 0.7148401415700986
 0.6510732046288273 0.7148401415700986
 0.6779566046165251 0.7148401415700986
 0.7148401415700986 0.7148401415700986
 0.5964281465525482 0.7148401415700986
 0.7185672872878969 0.7148401415700986
 0.7185672872878969 0.7148401415700986
 0.7148401415700986 0.7148401415700986
 0.7148401415700986 0.7148401415700986
 0.7185672872878969 0.7148401415700986
 0.7148401415700986 0.7148401415700986
 0.6548003503466254 0.7148401415700986
 0.7148401415700986 0.7148401415700986
 0.7185672872878969 0.7148401415700986
 0.7229631778477342 0.7148401415700986
 0.7185672872878969 0.7148401415700986
 0.583028068890066 0.7148401415700986
 0.7185672872878969 0.7148401415700986
 0.7185672872878969 0.7148401415700986
 0.7185672872878969 0.7148401415700986
 0.659196240906463 0.7148401415700986
 0.7185672872878969 0.7148401415700986
 0.7185672872878969 0.7148401415700986
 0.7148401415700986 0.7148401415700986
 0.5163791720870968 0.7148401415700986
 0.7185672872878969 0.7148401415700986
 0.6548003503466254 0.7148401415700986
 0.7148401415700986 0.7148401415700986
 0.6407659749417182 0.7148401415700986
 0.7185672872878969 0.7148401415700986
 0.7148401415700986 0.7148401415700986
 0.7185672872878969 0.7148401415700986
 0.7148401415700986 0.7148401415700986
 0.7148401415700986 0.7148401415700986
 0.7185672872878969 0.7148401415700986
 0.7185672872878969 0.7148401415700986
 0.7185672872878969 0.7148401415700986
 0.7185672872878969 0.7148401415700986
 0.7185672872878969 0.7148401415700986
 0.7148401415700986 0.7148401415700986
 0.5532991039814462 0.7148401415700986
 0.7185672872878969 0.7148401415700986
 0.6779566046165251 0.7148401415700986
 0.6407659749417182 0.7148401415700986
 0.7185672872878969 0.7148401415700986
 0.7185672872878969 0.7148401415700986
 0.5052267565438873 0.7148401415700986
 0.7148401415700986 0.7148401415700986
 0.5867552146078642 0.7148401415700986
 0.6548003503466254 0.7148401415700986
 0.7148401415700986 0.7148401415700986
 0.7185672872878969 0.7148401415700986
 0.7185672872878969 0.7148401415700986
 0.7185672872878969 0.7148401415700986
 0.7148401415700986 0.7148401415700986
 0.7185672872878969 0.7148401415700986
 0.7185672872878969 0.7148401415700986
 0.7185672872878969 0.7148401415700986
 0.6001552922703464 0.7148401415700986
 0.6170660409227176 0.7148401415700986
 0.7148401415700986 0.7148401415700986
 0.5867552146078642 0.7148401415700986
 0.7148401415700986 0.7148401415700986
 0.7185672872878969 0.7148401415700986
 0.7185672872878969 0.7148401415700986
 0.7148401415700986 0.7148401415700986
 0.7185672872878969 0.7148401415700986
 0.7185672872878969 0.7148401415700986
 0.6548003503466254 0.7148401415700986
 0.5867552146078642 0.7148401415700986
 0.7185672872878969 0.7148401415700986
 0.7185672872878969 0.7148401415700986
 0.7185672872878969 0.7148401415700986
 0.7185672872878969 0.7148401415700986
 0.7185672872878969 0.7148401415700986
 0.6538759739803114 0.7148401415700986
 0.7148401415700986 0.7148401415700986
 0.7185672872878969 0.7148401415700986
 0.7185672872878969 0.7148401415700986
 0.7185672872878969 0.7148401415700986
 0.6207931866405157 0.7148401415700986
 0.7185672872878969 0.7148401415700986
 0.7185672872878969 0.7148401415700986
 0.7148401415700986 0.7148401415700986
 0.7185672872878969 0.7148401415700986
 0.6742294588987269 0.7148401415700986
 0.7185672872878969 0.7148401415700986
 0.7185672872878969 0.7148401415700986
 0.7229631778477342 0.7148401415700986
 0.7185672872878969 0.7148401415700986
 0.7229631778477342 0.7148401415700986
 0.7185672872878969 0.7148401415700986
 0.7185672872878969 0.7148401415700986
 0.7185672872878969 0.7148401415700986
 0.5867552146078642 0.7148401415700986
 0.6779566046165251 0.7148401415700986
 0.6779566046165251 0.7148401415700986
 0.7185672872878969 0.7148401415700986
 0.7185672872878969 0.7148401415700986
 0.7185672872878969 0.7148401415700986
 0.7185672872878969 0.7148401415700986
 0.7177753406944346 0.7148401415700986
 0.7185672872878969 0.7148401415700986
 0.7185672872878969 0.7148401415700986
 0.7185672872878969 0.7148401415700986
 0.5867552146078642 0.7148401415700986
 0.6407659749417182 0.7148401415700986
 0.7185672872878969 0.7148401415700986
 0.7185672872878969 0.7148401415700986
 0.7185672872878969 0.7148401415700986
 0.7185672872878969 0.7148401415700986
 0.7185672872878969 0.7148401415700986
 0.7185672872878969 0.7148401415700986
 0.5867552146078642 0.7148401415700986
 0.7185672872878969 0.7148401415700986
 0.7185672872878969 0.7148401415700986
 0.6548003503466254 0.7148401415700986
 0.7185672872878969 0.7148401415700986
 0.7185672872878969 0.7148401415700986
 0.5867552146078642 0.7148401415700986
 0.7185672872878969 0.7148401415700986
 0.7185672872878969 0.7148401415700986
 0.7185672872878969 0.7148401415700986
 0.6779566046165251 0.7148401415700986
 0.4683432195903137 0.7148401415700986
 0.7185672872878969 0.7148401415700986
 0.7185672872878969 0.7148401415700986
 0.6407659749417182 0.7148401415700986
 0.7185672872878969 0.7148401415700986
 0.7185672872878969 0.7148401415700986
 0.7185672872878969 0.7148401415700986
 0.6779566046165251 0.7148401415700986
 0.6407659749417182 0.7148401415700986
 0.7185672872878969 0.7148401415700986
 0.7185672872878969 0.7148401415700986
 0.7185672872878969 0.7148401415700986
 0.7185672872878969 0.7148401415700986
 0.6779566046165251 0.7148401415700986
 0.7185672872878969 0.7148401415700986
 0.7148401415700986 0.7148401415700986
 0.7185672872878969 0.7148401415700986
 0.7185672872878969 0.7148401415700986
 0.7148401415700986 0.7148401415700986
 0.5867552146078642 0.7148401415700986
 0.5867552146078642 0.7148401415700986
 0.7185672872878969 0.7148401415700986
 0.7185672872878969 0.7148401415700986
 0.7229631778477342 0.7148401415700986
 0.7185672872878969 0.7148401415700986
 0.7185672872878969 0.7148401415700986
 0.7148401415700986 0.7148401415700986
 0.7185672872878969 0.7148401415700986
 0.7185672872878969 0.7148401415700986
 0.7185672872878969 0.7148401415700986
 0.7185672872878969 0.7148401415700986
 0.7185672872878969 0.7148401415700986
 0.7185672872878969 0.7148401415700986
 0.7185672872878969 0.7148401415700986
 0.6779566046165251 0.7148401415700986
 0.7229631778477342 0.7148401415700986
 0.7185672872878969 0.7148401415700986
 0.7185672872878969 0.7148401415700986
 0.7185672872878969 0.7148401415700986
 0.7185672872878969 0.7148401415700986
 0.7185672872878969 0.7148401415700986
 0.7185672872878969 0.7148401415700986
 0.6548003503466254 0.7148401415700986
 0.7185672872878969 0.7148401415700986
 0.7185672872878969 0.7148401415700986
 0.5461445319364924 0.7148401415700986
 0.6779566046165251 0.7148401415700986
 0.6823524951763625 0.7148401415700986
 0.7185672872878969 0.7148401415700986
 0.7185672872878969 0.7148401415700986
 0.5911511051677016 0.7148401415700986
 0.6779566046165251 0.7148401415700986
 0.7185672872878969 0.7148401415700986
 0.7185672872878969 0.7148401415700986
 0.6779566046165251 0.7148401415700986
 0.7185672872878969 0.7148401415700986
 0.6548003503466254 0.7148401415700986
 0.7185672872878969 0.7148401415700986
 0.6548003503466254 0.7148401415700986
 0.7185672872878969 0.7148401415700986
 0.5867552146078642 0.7148401415700986
 0.6548003503466254 0.7148401415700986
 0.7185672872878969 0.7148401415700986
 0.7185672872878969 0.7148401415700986
 0.7185672872878969 0.7148401415700986
 0.6779566046165251 0.7148401415700986
 0.5867552146078642 0.7148401415700986
 0.7185672872878969 0.7148401415700986
 0.7185672872878969 0.7148401415700986
 0.7185672872878969 0.7148401415700986
 0.7185672872878969 0.7148401415700986
 0.7185672872878969 0.7148401415700986
 0.7185672872878969 0.7148401415700986
 0.7185672872878969 0.7148401415700986
 0.6548003503466254 0.7148401415700986
 0.7185672872878969 0.7148401415700986
 0.7185672872878969 0.7148401415700986
 0.7185672872878969 0.7148401415700986
 0.7185672872878969 0.7148401415700986
 0.7185672872878969 0.7148401415700986
 0.5911511051677016 0.7148401415700986
 0.7185672872878969 0.7148401415700986
 0.6548003503466254 0.7148401415700986
 0.7185672872878969 0.7148401415700986
 0.6779566046165251 0.7148401415700986
 0.7185672872878969 0.7148401415700986
 0.7185672872878969 0.7148401415700986
 0.7185672872878969 0.7148401415700986
 0.7185672872878969 0.7148401415700986
 0.5867552146078642 0.7148401415700986
 0.7185672872878969 0.7148401415700986
 0.7185672872878969 0.7148401415700986
 0.7185672872878969 0.7148401415700986
 0.7185672872878969 0.7148401415700986
 0.7185672872878969 0.7148401415700986
 0.7185672872878969 0.7148401415700986
 0.7185672872878969 0.7148401415700986
 0.7185672872878969 0.7148401415700986
 0.6548003503466254 0.7148401415700986
 0.7185672872878969 0.7148401415700986
 0.7185672872878969 0.7148401415700986
 0.7185672872878969 0.7148401415700986
 0.583028068890066 0.7148401415700986
 0.7185672872878969 0.7148401415700986
 0.7185672872878969 0.7148401415700986
 0.7185672872878969 0.7148401415700986
 0.7185672872878969 0.7148401415700986
 0.6548003503466254 0.7148401415700986
 0.7185672872878969 0.7148401415700986
 0.7185672872878969 0.7148401415700986
 0.7185672872878969 0.7148401415700986
 0.7185672872878969 0.7148401415700986
 0.7185672872878969 0.7148401415700986
 0.7185672872878969 0.7148401415700986
 0.6779566046165251 0.7148401415700986
 0.7185672872878969 0.7148401415700986
 0.7185672872878969 0.7148401415700986
 0.7185672872878969 0.7148401415700986
 0.7185672872878969 0.7148401415700986
 0.6742294588987269 0.7148401415700986
 0.7185672872878969 0.7148401415700986
 0.7185672872878969 0.7148401415700986
 0.7185672872878969 0.7148401415700986
 0.7185672872878969 0.7148401415700986
 0.7185672872878969 0.7148401415700986
 0.7185672872878969 0.7148401415700986
 0.7185672872878969 0.7148401415700986
 0.6779566046165251 0.7148401415700986
 0.7185672872878969 0.7148401415700986
 0.6742294588987269 0.7148401415700986
 0.7148401415700986 0.7148401415700986
 0.6407659749417182 0.7148401415700986
 0.7185672872878969 0.7148401415700986
 0.7185672872878969 0.7148401415700986
 0.7185672872878969 0.7148401415700986
 0.7185672872878969 0.7148401415700986
 0.7185672872878969 0.7148401415700986
 0.7185672872878969 0.7148401415700986
 0.6779566046165251 0.7148401415700986
 0.7148401415700986 0.7148401415700986
 0.7185672872878969 0.7148401415700986
 0.7148401415700986 0.7148401415700986
 0.7185672872878969 0.7148401415700986
 0.7148401415700986 0.7148401415700986
 0.7193923118213955 0.7148401415700986
 0.7185672872878969 0.7148401415700986
 0.7185672872878969 0.7148401415700986
 0.7185672872878969 0.7148401415700986
 0.7185672872878969 0.7148401415700986
 0.7185672872878969 0.7148401415700986
 0.7185672872878969 0.7148401415700986
 0.7148401415700986 0.7148401415700986
 0.7185672872878969 0.7148401415700986
 0.7185672872878969 0.7148401415700986
 0.7185672872878969 0.7148401415700986
 0.7185672872878969 0.7148401415700986
 0.7185672872878969 0.7148401415700986
 0.6510732046288273 0.7148401415700986
 0.6548003503466254 0.7148401415700986
 0.5867552146078642 0.7148401415700986
 0.6779566046165251 0.7148401415700986
 0.7185672872878969 0.7148401415700986
 0.6407659749417182 0.7148401415700986
 0.7185672872878969 0.7148401415700986
 0.7185672872878969 0.7148401415700986
 0.7185672872878969 0.7148401415700986
 0.6779566046165251 0.7148401415700986
 0.7185672872878969 0.7148401415700986
 0.5867552146078642 0.7148401415700986
 0.7185672872878969 0.7148401415700986
 0.6779566046165251 0.7148401415700986
 0.7150321953656328 0.7148401415700986
 0.6548003503466254 0.7148401415700986
 0.7185672872878969 0.7148401415700986
 0.6779566046165251 0.7148401415700986
 0.6779566046165251 0.7148401415700986
 0.7185672872878969 0.7148401415700986
 0.7148401415700986 0.7148401415700986
 0.6779566046165251 0.7148401415700986
 0.7185672872878969 0.7148401415700986
 0.7185672872878969 0.7148401415700986
 0.7185672872878969 0.7148401415700986
 0.7185672872878969 0.7148401415700986
 0.7185672872878969 0.7148401415700986
 0.7185672872878969 0.7148401415700986
 0.6779566046165251 0.7148401415700986
 0.7185672872878969 0.7148401415700986
 0.7185672872878969 0.7148401415700986
 0.6779566046165251 0.7148401415700986
 0.7185672872878969 0.7148401415700986
 0.7185672872878969 0.7148401415700986
 0.6779566046165251 0.7148401415700986
 0.7185672872878969 0.7148401415700986
 0.7185672872878969 0.7148401415700986
 0.7185672872878969 0.7148401415700986
 0.5867552146078642 0.7148401415700986
 0.7148401415700986 0.7148401415700986
 0.7185672872878969 0.7148401415700986
 0.7185672872878969 0.7148401415700986
 0.7185672872878969 0.7148401415700986
 0.7185672872878969 0.7148401415700986
 0.7185672872878969 0.7148401415700986
 0.7185672872878969 0.7148401415700986
 0.7185672872878969 0.7148401415700986
 0.7148401415700986 0.7148401415700986
 0.7185672872878969 0.7148401415700986
 0.6779566046165251 0.7148401415700986
 0.7185672872878969 0.7148401415700986
 0.7185672872878969 0.7148401415700986
 0.7148401415700986 0.7148401415700986
 0.7185672872878969 0.7148401415700986
 0.7185672872878969 0.7148401415700986
 0.7185672872878969 0.7148401415700986
 0.7185672872878969 0.7148401415700986
 0.6548003503466254 0.7148401415700986
 0.6779566046165251 0.7148401415700986
 0.6779566046165251 0.7148401415700986
 0.5867552146078642 0.7148401415700986
 0.6548003503466254 0.7148401415700986
 0.6779566046165251 0.7148401415700986
 0.7229631778477342 0.7148401415700986
 0.7185672872878969 0.7148401415700986
 0.7185672872878969 0.7148401415700986
 0.7185672872878969 0.7148401415700986
 0.7148401415700986 0.7148401415700986
 0.6104625219574555 0.7148401415700986
 0.7148401415700986 0.7148401415700986
 0.7185672872878969 0.7148401415700986
 0.7185672872878969 0.7148401415700986
 0.6779566046165251 0.7148401415700986
 0.7185672872878969 0.7148401415700986
 0.7185672872878969 0.7148401415700986
 0.7148401415700986 0.7148401415700986
 0.7185672872878969 0.7148401415700986
 0.7185672872878969 0.7148401415700986
 0.7185672872878969 0.7148401415700986
 0.6548003503466254 0.7148401415700986
 0.6141896676752537 0.7148401415700986
 0.7185672872878969 0.7148401415700986
 0.7185672872878969 0.7148401415700986
 0.7185672872878969 0.7148401415700986
 0.7185672872878969 0.7148401415700986
 0.5229882776665928 0.7148401415700986
 0.7185672872878969 0.7148401415700986
 0.7229631778477342 0.7148401415700986
 0.7148401415700986 0.7148401415700986
 0.7185672872878969 0.7148401415700986
 0.6779566046165251 0.7148401415700986
 0.7185672872878969 0.7148401415700986
 0.7185672872878969 0.7148401415700986
 0.5911511051677016 0.7148401415700986
 0.6779566046165251 0.7148401415700986
 0.7148401415700986 0.7148401415700986
 0.6779566046165251 0.7148401415700986
 0.7185672872878969 0.7148401415700986
 0.6823524951763625 0.7148401415700986
 0.7185672872878969 0.7148401415700986
 0.7148401415700986 0.7148401415700986
 0.7185672872878969 0.7148401415700986
 0.7148401415700986 0.7148401415700986
 0.7185672872878969 0.7148401415700986
 0.6779566046165251 0.7148401415700986
 0.7185672872878969 0.7148401415700986
 0.7185672872878969 0.7148401415700986
 0.7185672872878969 0.7148401415700986
 0.7185672872878969 0.7148401415700986
 0.7185672872878969 0.7148401415700986
 0.7185672872878969 0.7148401415700986
 0.7185672872878969 0.7148401415700986
 0.7185672872878969 0.7148401415700986
 0.6823524951763625 0.7148401415700986
 0.7185672872878969 0.7148401415700986
 0.7185672872878969 0.7148401415700986
 0.7185672872878969 0.7148401415700986
 0.7185672872878969 0.7148401415700986
 0.6742294588987269 0.7148401415700986
 0.6779566046165251 0.7148401415700986
 0.7185672872878969 0.7148401415700986
 0.7185672872878969 0.7148401415700986
 0.7185672872878969 0.7148401415700986
 0.7229631778477342 0.7148401415700986
 0.6548003503466254 0.7148401415700986
 0.5801825039691441 0.7148401415700986
 0.6510732046288273 0.7148401415700986
 0.7148401415700986 0.7148401415700986
 0.7185672872878969 0.7148401415700986
 0.7148401415700986 0.7148401415700986
 0.7185672872878969 0.7148401415700986
 0.7185672872878969 0.7148401415700986
 0.7185672872878969 0.7148401415700986
 0.7229631778477342 0.7148401415700986
 0.7229631778477342 0.7148401415700986
 0.6779566046165251 0.7148401415700986
 0.6742294588987269 0.7148401415700986
 0.7185672872878969 0.7148401415700986
 0.7185672872878969 0.7148401415700986
 0.7148401415700986 0.7148401415700986
 0.7148401415700986 0.7148401415700986
 0.7185672872878969 0.7148401415700986
 0.7229631778477342 0.7148401415700986
 0.7148401415700986 0.7148401415700986
 0.7229631778477342 0.7148401415700986
 0.7185672872878969 0.7148401415700986
 0.7185672872878969 0.7148401415700986
 0.7185672872878969 0.7148401415700986
 0.7148401415700986 0.7148401415700986
 0.7185672872878969 0.7148401415700986
 0.7185672872878969 0.7148401415700986
 0.7185672872878969 0.7148401415700986
 0.7185672872878969 0.7148401415700986
 0.7148401415700986 0.7148401415700986
 0.7185672872878969 0.7148401415700986
 0.7148401415700986 0.7148401415700986
 0.7185672872878969 0.7148401415700986
 0.7185672872878969 0.7148401415700986
 0.7185672872878969 0.7148401415700986
 0.6823524951763625 0.7148401415700986
 0.7229631778477342 0.7148401415700986
 0.6779566046165251 0.7148401415700986
 0.7229631778477342 0.7148401415700986
 0.6779566046165251 0.7148401415700986
 0.7148401415700986 0.7148401415700986
 0.7185672872878969 0.7148401415700986
 0.7185672872878969 0.7148401415700986
 0.7185672872878969 0.7148401415700986
 0.7185672872878969 0.7148401415700986
 0.7185672872878969 0.7148401415700986
 0.7185672872878969 0.7148401415700986
 0.7185672872878969 0.7148401415700986
 0.7185672872878969 0.7148401415700986
 0.7229631778477342 0.7148401415700986
 0.7185672872878969 0.7148401415700986
 0.7185672872878969 0.7148401415700986
 0.7148401415700986 0.7148401415700986
 0.7185672872878969 0.7148401415700986
 0.7185672872878969 0.7148401415700986
 0.7185672872878969 0.7148401415700986
 0.7229631778477342 0.7148401415700986
 0.6407659749417182 0.7148401415700986
 0.7185672872878969 0.7148401415700986
 0.5867552146078642 0.7148401415700986
 0.7185672872878969 0.7148401415700986
 0.7185672872878969 0.7148401415700986
 0.7185672872878969 0.7148401415700986
 0.6779566046165251 0.7148401415700986
 0.5867552146078642 0.7148401415700986
 0.7185672872878969 0.7148401415700986
 0.7185672872878969 0.7148401415700986
 0.6779566046165251 0.7148401415700986
 0.7185672872878969 0.7148401415700986
 0.7148401415700986 0.7148401415700986
 0.7185672872878969 0.7148401415700986
 0.7185672872878969 0.7148401415700986
 0.7185672872878969 0.7148401415700986
 0.7229631778477342 0.7148401415700986
 0.6779566046165251 0.7148401415700986
 0.7185672872878969 0.7148401415700986
 0.6779566046165251 0.7148401415700986
 0.7185672872878969 0.7148401415700986
 0.7185672872878969 0.7148401415700986
 0.7148401415700986 0.7148401415700986
 0.7185672872878969 0.7148401415700986
 0.6548003503466254 0.7148401415700986
 0.6548003503466254 0.7148401415700986
 0.6779566046165251 0.7148401415700986
 0.6548003503466254 0.7148401415700986
 0.7185672872878969 0.7148401415700986
 0.7185672872878969 0.7148401415700986
 0.7185672872878969 0.7148401415700986
 0.659196240906463 0.7148401415700986
 0.7185672872878969 0.7148401415700986
 0.7185672872878969 0.7148401415700986
 0.7185672872878969 0.7148401415700986
 0.6548003503466254 0.7148401415700986
 0.6823524951763625 0.7148401415700986
 0.7185672872878969 0.7148401415700986
 0.6823524951763625 0.7148401415700986
 0.7185672872878969 0.7148401415700986
 0.7229631778477342 0.7148401415700986
 0.7185672872878969 0.7148401415700986
 0.5911511051677016 0.7148401415700986
 0.7229631778477342 0.7148401415700986
 0.6370388292239199 0.7148401415700986
 0.7229631778477342 0.7148401415700986
 0.6548003503466254 0.7148401415700986
 0.6451618655015555 0.7148401415700986
 0.5911511051677016 0.7148401415700986
 0.7148401415700986 0.7148401415700986
 0.7229631778477342 0.7148401415700986
 0.6141896676752537 0.7148401415700986
 0.7185672872878969 0.7148401415700986
 0.583028068890066 0.7148401415700986
 0.7185672872878969 0.7148401415700986
 0.7229631778477342 0.7148401415700986