# Created by Octave 4.0.0, Wed May 09 16:57:36 2018 CEST <olethros@olethros-OptiPlex-9010>
# name: results
# type: struct
# ndims: 2
 1 5
# length: 8
# name: options
# type: cell
# rows: 1
# columns: 5
# name: <cell-element>
# type: scalar struct
# ndims: 2
 1 1
# length: 8
# name: A
# type: scalar
2


# name: X
# type: scalar
8


# name: Y
# type: scalar
2


# name: Z
# type: scalar
2


# name: lambda
# type: scalar
0


# name: n_iter
# type: scalar
10000


# name: horizon
# type: scalar
1000


# name: n_samples
# type: scalar
1





# name: <cell-element>
# type: scalar struct
# ndims: 2
 1 1
# length: 8
# name: A
# type: scalar
2


# name: X
# type: scalar
8


# name: Y
# type: scalar
2


# name: Z
# type: scalar
2


# name: lambda
# type: scalar
0.25


# name: n_iter
# type: scalar
10000


# name: horizon
# type: scalar
1000


# name: n_samples
# type: scalar
1





# name: <cell-element>
# type: scalar struct
# ndims: 2
 1 1
# length: 8
# name: A
# type: scalar
2


# name: X
# type: scalar
8


# name: Y
# type: scalar
2


# name: Z
# type: scalar
2


# name: lambda
# type: scalar
0.5


# name: n_iter
# type: scalar
10000


# name: horizon
# type: scalar
1000


# name: n_samples
# type: scalar
1





# name: <cell-element>
# type: scalar struct
# ndims: 2
 1 1
# length: 8
# name: A
# type: scalar
2


# name: X
# type: scalar
8


# name: Y
# type: scalar
2


# name: Z
# type: scalar
2


# name: lambda
# type: scalar
0.75


# name: n_iter
# type: scalar
10000


# name: horizon
# type: scalar
1000


# name: n_samples
# type: scalar
1





# name: <cell-element>
# type: scalar struct
# ndims: 2
 1 1
# length: 8
# name: A
# type: scalar
2


# name: X
# type: scalar
8


# name: Y
# type: scalar
2


# name: Z
# type: scalar
2


# name: lambda
# type: scalar
1


# name: n_iter
# type: scalar
10000


# name: horizon
# type: scalar
1000


# name: n_samples
# type: scalar
1







# name: PU
# type: cell
# rows: 1
# columns: 5
# name: <cell-element>
# type: matrix
# rows: 1000
# columns: 2
 0.4076979909330914 0.4579755306518181
 0.4528394253758802 0.4675200054204118
 0.5931872325059636 0.4958447755984653
 0.5354748333264412 0.5349254138873458
 0.5245486464762923 0.5521631315029962
 0.5947000470523028 0.5839787276120811
 0.5241398926776316 0.5842799586033705
 0.6660802188451974 0.5210882501926383
 0.56553895071757 0.5671787198926806
 0.531831234819075 0.4751486532752506
 0.4453872361325789 0.5239160021450142
 0.597441632815526 0.4836666194357547
 0.4160032350110324 0.5047148700308315
 0.5152119852545047 0.4982909107126492
 0.3859391176199037 0.5044080284580932
 0.5168735524461774 0.5244224851586214
 0.5074601801423676 0.523534621020788
 0.4497477809628452 0.4958657295995478
 0.5411678960408625 0.4943269675061535
 0.5486967963661861 0.4900051168909465
 0.522664174497806 0.4688696635245576
 0.4666133425099562 0.4987946725646871
 0.5093866793724373 0.4685083222013628
 0.4037445302767285 0.4796102035182662
 0.5959176566764905 0.4902820712991257
 0.5015442126411327 0.4791558395522029
 0.5352519285396276 0.4801909219596025
 0.4835460309859748 0.4812228141543868
 0.5913027605274774 0.4927131181639838
 0.635793196667255 0.4791368897298955
 0.5913027605274774 0.5143949537433832
 0.5033033391700127 0.5059067076237636
 0.4847880147454952 0.4691639305561346
 0.4788720472442602 0.4739992651864074
 0.5352519285396276 0.4861073528781931
 0.5931872325059636 0.4683314460457776
 0.5352519285396276 0.5090766182159214
 0.5033033391700127 0.4700903692474231
 0.5033033391700127 0.4844172060024465
 0.4589382484798413 0.4648951151793831
 0.4648542159810762 0.4841084684025175
 0.5352519285396276 0.4721182569746635
 0.5033033391700127 0.4757691145640093
 0.4557638667418296 0.5009517564305833
 0.5033033391700127 0.5059365279859056
 0.5033033391700127 0.4978551292779012
 0.4606973750087213 0.5034357833406035
 0.5931872325059636 0.512962385574886
 0.4775395293601052 0.510870219762726
 0.5352519285396276 0.5065950083310808
 0.4957142015956441 0.5070380388533395
 0.5411678960408625 0.5103789065273223
 0.5092193066712476 0.5136698555056836
 0.5260614610226314 0.5145233053686293
 0.5805994784641421 0.5096641785928369
 0.4788720472442602 0.5148702251391303
 0.5794133153718876 0.5135311286267789
 0.5837738602021538 0.5096474840280296
 0.5580100503922464 0.5109125258045535
 0.5033033391700127 0.511244347654469
 0.5853292828731225 0.514818129689347
 0.5778578927009189 0.5154062472757602
 0.6006160145535377 0.5133827696051663
 0.4528394253758802 0.5140830669728054
 0.5853292828731225 0.5112578098389208
 0.4469234578746453 0.515058772427076
 0.5411678960408625 0.510794105449242
 0.5778578927009189 0.5141278639280321
 0.5201454935213965 0.5162334580844615
 0.5837738602021538 0.5103140978065829
 0.635793196667255 0.5118120215728034
 0.5778578927009189 0.511667525203235
 0.5612386431363486 0.5115599367430859
 0.5092193066712476 0.5199041727081155
 0.5580100503922464 0.5115789486178686
 0.5778578927009189 0.5088526547716239
 0.5778578927009189 0.508209262973474
 0.6585513185198738 0.5202129355171785
 0.6006160145535377 0.5129952039030055
 0.5074601801423676 0.5159819453285832
 0.5778578927009189 0.5124280657384086
 0.5214780114055515 0.5165486683664686
 0.6140608823800963 0.5074601801423676
 0.5931872325059636 0.5074601801423676
 0.5913027605274774 0.5074601801423676
 0.4741422428352798 0.5074601801423676
 0.5411678960408625 0.5074601801423676
 0.5837738602021538 0.5074601801423676
 0.6551540319950484 0.5074601801423676
 0.5837738602021538 0.5074601801423676
 0.5778578927009189 0.5074601801423676
 0.6081449148788614 0.5074601801423676
 0.4666133425099562 0.5074601801423676
 0.5837738602021538 0.5074601801423676
 0.5778578927009189 0.5074601801423676
 0.5972187280287123 0.5074601801423676
 0.6156163050510649 0.5074601801423676
 0.5092193066712476 0.5074601801423676
 0.4923169150708187 0.5074601801423676
 0.5837738602021538 0.5074601801423676
 0.5015442126411327 0.5074601801423676
 0.5837738602021538 0.5074601801423676
 0.6006160145535377 0.5074601801423676
 0.5273939789067864 0.5074601801423676
 0.5092193066712476 0.5074601801423676
 0.5913027605274774 0.5074601801423676
 0.5273939789067864 0.5074601801423676
 0.6140608823800963 0.5074601801423676
 0.6006160145535377 0.5074601801423676
 0.5411678960408625 0.5074601801423676
 0.5837738602021538 0.5074601801423676
 0.5837738602021538 0.5074601801423676
 0.5273939789067864 0.5074601801423676
 0.5837738602021538 0.5074601801423676
 0.5778578927009189 0.5074601801423676
 0.635793196667255 0.5074601801423676
 0.5442361332581703 0.5074601801423676
 0.5273939789067864 0.5074601801423676
 0.6417091641684899 0.5074601801423676
 0.6006160145535377 0.5074601801423676
 0.5947000470523028 0.5074601801423676
 0.5214780114055515 0.5074601801423676
 0.5411678960408625 0.5074601801423676
 0.5837738602021538 0.5074601801423676
 0.6140608823800963 0.5074601801423676
 0.5837738602021538 0.5074601801423676
 0.5411678960408625 0.5074601801423676
 0.6006160145535377 0.5074601801423676
 0.5837738602021538 0.5074601801423676
 0.6399422143487149 0.5074601801423676
 0.5273939789067864 0.5074601801423676
 0.5837738602021538 0.5074601801423676
 0.5260614610226314 0.5074601801423676
 0.5837738602021538 0.5074601801423676
 0.6021714372245064 0.5074601801423676
 0.5774555012562974 0.5074601801423676
 0.5837738602021538 0.5074601801423676
 0.5273939789067864 0.5074601801423676
 0.5427233187118311 0.5074601801423676
 0.5837738602021538 0.5074601801423676
 0.6006160145535377 0.5074601801423676
 0.5352519285396276 0.5074601801423676
 0.5778578927009189 0.5074601801423676
 0.5671546106375835 0.5074601801423676
 0.5991032000071985 0.5074601801423676
 0.5837738602021538 0.5074601801423676
 0.5837738602021538 0.5074601801423676
 0.6417091641684899 0.5074601801423676
 0.5837738602021538 0.5074601801423676
 0.635793196667255 0.5074601801423676
 0.5671546106375835 0.5074601801423676
 0.5837738602021538 0.5074601801423676
 0.5653954841087037 0.5074601801423676
 0.4662842932024386 0.5074601801423676
 0.5837738602021538 0.5074601801423676
 0.6417091641684899 0.5074601801423676
 0.5273939789067864 0.5074601801423676
 0.5822376384600876 0.5074601801423676
 0.6585513185198738 0.5074601801423676
 0.6417091641684899 0.5074601801423676
 0.5805994784641421 0.5074601801423676
 0.6417091641684899 0.5074601801423676
 0.6417091641684899 0.5074601801423676
 0.5991032000071985 0.5074601801423676
 0.5671546106375835 0.5074601801423676
 0.5853292828731225 0.5074601801423676
 0.5671546106375835 0.5074601801423676
 0.6526353510186389 0.5074601801423676
 0.6417091641684899 0.5074601801423676
 0.6417091641684899 0.5074601801423676
 0.5853292828731225 0.5074601801423676
 0.5427233187118311 0.5074601801423676
 0.6417091641684899 0.5074601801423676
 0.5991032000071985 0.5074601801423676
 0.6417091641684899 0.5074601801423676
 0.6417091641684899 0.5074601801423676
 0.6551540319950484 0.5074601801423676
 0.6417091641684899 0.5074601801423676
 0.5729243844340273 0.5074601801423676
 0.6417091641684899 0.5074601801423676
 0.5991032000071985 0.5074601801423676
 0.5671546106375835 0.5074601801423676
 0.5671546106375835 0.5074601801423676
 0.635793196667255 0.5074601801423676
 0.598774150699681 0.5074601801423676
 0.6417091641684899 0.5074601801423676
 0.6417091641684899 0.5074601801423676
 0.6417091641684899 0.5074601801423676
 0.6417091641684899 0.5074601801423676
 0.5853292828731225 0.5074601801423676
 0.5853292828731225 0.5074601801423676
 0.6417091641684899 0.5074601801423676
 0.6417091641684899 0.5074601801423676
 0.6417091641684899 0.5074601801423676
 0.6551540319950484 0.5074601801423676
 0.6417091641684899 0.5074601801423676
 0.6417091641684899 0.5074601801423676
 0.5839967649889675 0.5074601801423676
 0.5671546106375835 0.5074601801423676
 0.6585513185198738 0.5074601801423676
 0.5837738602021538 0.5074601801423676
 0.6551540319950484 0.5074601801423676
 0.6417091641684899 0.5074601801423676
 0.635793196667255 0.5074601801423676
 0.6585513185198738 0.5074601801423676
 0.6417091641684899 0.5074601801423676
 0.6417091641684899 0.5074601801423676
 0.6417091641684899 0.5074601801423676
 0.6492380644938135 0.5074601801423676
 0.5746835109629072 0.5074601801423676
 0.6417091641684899 0.5074601801423676
 0.5671546106375835 0.5074601801423676
 0.6585513185198738 0.5074601801423676
 0.6551540319950484 0.5074601801423676
 0.6719961863464323 0.5074601801423676
 0.6417091641684899 0.5074601801423676
 0.6719961863464323 0.5074601801423676
 0.6417091641684899 0.5074601801423676
 0.6417091641684899 0.5074601801423676
 0.5671546106375835 0.5074601801423676
 0.5805994784641421 0.5074601801423676
 0.5671546106375835 0.5074601801423676
 0.6551540319950484 0.5074601801423676
 0.6417091641684899 0.5074601801423676
 0.6417091641684899 0.5074601801423676
 0.5837738602021538 0.5074601801423676
 0.6551540319950484 0.5074601801423676
 0.6417091641684899 0.5113621028395992
 0.6417091641684899 0.5155874143748256
 0.46225279767969 0.5115905276753616
 0.6551540319950484 0.5134321877102161
 0.6417091641684899 0.5145151107420634
 0.5671546106375835 0.5096557733994016
 0.6417091641684899 0.5119394813356907
 0.6417091641684899 0.5125631778604491
 0.6719961863464323 0.5158359111101869
 0.6417091641684899 0.5140732194414839
 0.6417091641684899 0.5131288771259075
 0.6551540319950484 0.5126064053634489
 0.6417091641684899 0.5084662865806716
 0.6417091641684899 0.5169958869332817
 0.6417091641684899 0.5088458166440014
 0.5837738602021538 0.5103458988706921
 0.6417091641684899 0.5111353245056848
 0.635793196667255 0.5209050479689261
 0.6417091641684899 0.5209050479689261
 0.6551540319950484 0.5209050479689261
 0.6719961863464323 0.5209050479689261
 0.5671546106375835 0.5209050479689261
 0.6417091641684899 0.5209050479689261
 0.6417091641684899 0.5209050479689261
 0.5991032000071985 0.5209050479689261
 0.6417091641684899 0.5209050479689261
 0.6551540319950484 0.5209050479689261
 0.6585513185198738 0.5209050479689261
 0.5991032000071985 0.5209050479689261
 0.5671546106375835 0.5209050479689261
 0.6417091641684899 0.5209050479689261
 0.6417091641684899 0.5209050479689261
 0.6551540319950484 0.5209050479689261
 0.5671546106375835 0.5209050479689261
 0.6551540319950484 0.5209050479689261
 0.6417091641684899 0.5209050479689261
 0.6417091641684899 0.5209050479689261
 0.5671546106375835 0.5209050479689261
 0.6551540319950484 0.5209050479689261
 0.6417091641684899 0.5209050479689261
 0.6551540319950484 0.5209050479689261
 0.6551540319950484 0.5209050479689261
 0.6417091641684899 0.5209050479689261
 0.5033033391700127 0.5209050479689261
 0.6551540319950484 0.5209050479689261
 0.6492380644938135 0.5209050479689261
 0.6551540319950484 0.5209050479689261
 0.598774150699681 0.5209050479689261
 0.6417091641684899 0.5209050479689261
 0.6417091641684899 0.5209050479689261
 0.6551540319950484 0.5209050479689261
 0.6551540319950484 0.5209050479689261
 0.5612386431363486 0.5209050479689261
 0.6492380644938135 0.5209050479689261
 0.6585513185198738 0.5209050479689261
 0.5991032000071985 0.5209050479689261
 0.5671546106375835 0.5209050479689261
 0.635793196667255 0.5209050479689261
 0.6551540319950484 0.5209050479689261
 0.635793196667255 0.5209050479689261
 0.6417091641684899 0.5209050479689261
 0.6543766090737286 0.5209050479689261
 0.6417091641684899 0.5209050479689261
 0.6585513185198738 0.5209050479689261
 0.5991032000071985 0.5209050479689261
 0.6551540319950484 0.5209050479689261
 0.6492380644938135 0.5209050479689261
 0.6551540319950484 0.5209050479689261
 0.6417091641684899 0.5209050479689261
 0.6551540319950484 0.5209050479689261
 0.6417091641684899 0.5209050479689261
 0.6417091641684899 0.5209050479689261
 0.5703573588960812 0.5209050479689261
 0.5991032000071985 0.5209050479689261
 0.6417091641684899 0.5209050479689261
 0.6417091641684899 0.5209050479689261
 0.6585513185198738 0.5209050479689261
 0.6551540319950484 0.5209050479689261
 0.6417091641684899 0.5209050479689261
 0.6551540319950484 0.5209050479689261
 0.6492380644938135 0.5209050479689261
 0.6417091641684899 0.5209050479689261
 0.6551540319950484 0.5209050479689261
 0.6417091641684899 0.5209050479689261
 0.6417091641684899 0.5209050479689261
 0.6417091641684899 0.5209050479689261
 0.6417091641684899 0.5209050479689261
 0.635793196667255 0.5209050479689261
 0.635793196667255 0.5209050479689261
 0.612548067833757 0.5209050479689261
 0.6551540319950484 0.5209050479689261
 0.6417091641684899 0.5209050479689261
 0.6417091641684899 0.5209050479689261
 0.6417091641684899 0.5209050479689261
 0.6585513185198738 0.5209050479689261
 0.6417091641684899 0.5209050479689261
 0.6492380644938135 0.5209050479689261
 0.6551540319950484 0.5209050479689261
 0.6417091641684899 0.5209050479689261
 0.6417091641684899 0.5209050479689261
 0.6492380644938135 0.5209050479689261
 0.5805994784641421 0.5209050479689261
 0.6417091641684899 0.5209050479689261
 0.5991032000071985 0.5209050479689261
 0.6417091641684899 0.5209050479689261
 0.6551540319950484 0.5209050479689261
 0.6492380644938135 0.5209050479689261
 0.6417091641684899 0.5209050479689261
 0.6551540319950484 0.5209050479689261
 0.6417091641684899 0.5209050479689261
 0.5853292828731225 0.5209050479689261
 0.6585513185198738 0.5209050479689261
 0.6417091641684899 0.5209050479689261
 0.6551540319950484 0.5209050479689261
 0.5853292828731225 0.5209050479689261
 0.635793196667255 0.5209050479689261
 0.6551540319950484 0.5209050479689261
 0.6417091641684899 0.5209050479689261
 0.6551540319950484 0.5209050479689261
 0.5853292828731225 0.5209050479689261
 0.6492380644938135 0.5209050479689261
 0.635793196667255 0.5209050479689261
 0.6551540319950484 0.5209050479689261
 0.6551540319950484 0.5209050479689261
 0.635793196667255 0.5209050479689261
 0.6417091641684899 0.5209050479689261
 0.6492380644938135 0.5209050479689261
 0.635793196667255 0.5209050479689261
 0.635793196667255 0.5209050479689261
 0.635793196667255 0.5209050479689261
 0.6417091641684899 0.5209050479689261
 0.6417091641684899 0.5209050479689261
 0.6417091641684899 0.5209050479689261
 0.6526353510186389 0.5209050479689261
 0.6417091641684899 0.5209050479689261
 0.6417091641684899 0.5209050479689261
 0.5671546106375835 0.5209050479689261
 0.5853292828731225 0.5209050479689261
 0.6417091641684899 0.5209050479689261
 0.6551540319950484 0.5209050479689261
 0.6551540319950484 0.5209050479689261
 0.6417091641684899 0.5209050479689261
 0.5671546106375835 0.5209050479689261
 0.6551540319950484 0.5209050479689261
 0.6551540319950484 0.5209050479689261
 0.6417091641684899 0.5209050479689261
 0.6551540319950484 0.5209050479689261
 0.6417091641684899 0.5209050479689261
 0.6551540319950484 0.5209050479689261
 0.6417091641684899 0.5209050479689261
 0.6551540319950484 0.5209050479689261
 0.6585513185198738 0.5209050479689261
 0.6585513185198738 0.5209050479689261
 0.635793196667255 0.5209050479689261
 0.6417091641684899 0.5209050479689261
 0.5245486464762923 0.5209050479689261
 0.6417091641684899 0.5209050479689261
 0.6417091641684899 0.5209050479689261
 0.6417091641684899 0.5209050479689261
 0.5991032000071985 0.5209050479689261
 0.6585513185198738 0.5209050479689261
 0.6417091641684899 0.5209050479689261
 0.6417091641684899 0.5209050479689261
 0.6417091641684899 0.5209050479689261
 0.5991032000071985 0.5209050479689261
 0.6417091641684899 0.5209050479689261
 0.635793196667255 0.5209050479689261
 0.6417091641684899 0.5209050479689261
 0.6417091641684899 0.5209050479689261
 0.6551540319950484 0.5209050479689261
 0.6417091641684899 0.5209050479689261
 0.6417091641684899 0.5209050479689261
 0.6417091641684899 0.5209050479689261
 0.6585513185198738 0.5209050479689261
 0.6417091641684899 0.5209050479689261
 0.5991032000071985 0.5209050479689261
 0.6417091641684899 0.5209050479689261
 0.6551540319950484 0.5209050479689261
 0.6417091641684899 0.5209050479689261
 0.6417091641684899 0.5209050479689261
 0.5245486464762923 0.5209050479689261
 0.6417091641684899 0.5209050479689261
 0.6417091641684899 0.5209050479689261
 0.6551540319950484 0.5209050479689261
 0.6417091641684899 0.5209050479689261
 0.6585513185198738 0.5209050479689261
 0.635793196667255 0.5209050479689261
 0.6551540319950484 0.5209050479689261
 0.6417091641684899 0.5209050479689261
 0.635793196667255 0.5209050479689261
 0.6551540319950484 0.5209050479689261
 0.6417091641684899 0.5209050479689261
 0.6417091641684899 0.5209050479689261
 0.6417091641684899 0.5209050479689261
 0.6417091641684899 0.5209050479689261
 0.6551540319950484 0.5209050479689261
 0.6492380644938135 0.5209050479689261
 0.6585513185198738 0.5209050479689261
 0.6417091641684899 0.5209050479689261
 0.6417091641684899 0.5209050479689261
 0.6417091641684899 0.5209050479689261
 0.6417091641684899 0.5209050479689261
 0.6417091641684899 0.5209050479689261
 0.6585513185198738 0.5209050479689261
 0.6417091641684899 0.5209050479689261
 0.6417091641684899 0.5209050479689261
 0.6417091641684899 0.5209050479689261
 0.6551540319950484 0.5209050479689261
 0.6551540319950484 0.5209050479689261
 0.6417091641684899 0.5209050479689261
 0.6417091641684899 0.5209050479689261
 0.6551540319950484 0.5209050479689261
 0.6585513185198738 0.5209050479689261
 0.6417091641684899 0.5209050479689261
 0.6417091641684899 0.5209050479689261
 0.6585513185198738 0.5209050479689261
 0.6551540319950484 0.5209050479689261
 0.6417091641684899 0.5209050479689261
 0.6551540319950484 0.5209050479689261
 0.5612386431363486 0.5209050479689261
 0.6417091641684899 0.5209050479689261
 0.6417091641684899 0.5209050479689261
 0.6585513185198738 0.5209050479689261
 0.6551540319950484 0.5209050479689261
 0.6417091641684899 0.5209050479689261
 0.6551540319950484 0.5209050479689261
 0.6551540319950484 0.5209050479689261
 0.6417091641684899 0.5209050479689261
 0.6417091641684899 0.5209050479689261
 0.6417091641684899 0.5209050479689261
 0.5991032000071985 0.5209050479689261
 0.6417091641684899 0.5209050479689261
 0.6417091641684899 0.5209050479689261
 0.6585513185198738 0.5209050479689261
 0.6551540319950484 0.5209050479689261
 0.6417091641684899 0.5209050479689261
 0.6417091641684899 0.5209050479689261
 0.6585513185198738 0.5209050479689261
 0.6551540319950484 0.5209050479689261
 0.6551540319950484 0.5209050479689261
 0.6719961863464323 0.5209050479689261
 0.6551540319950484 0.5209050479689261
 0.6417091641684899 0.5209050479689261
 0.6417091641684899 0.5209050479689261
 0.6417091641684899 0.5209050479689261
 0.6417091641684899 0.5209050479689261
 0.6417091641684899 0.5209050479689261
 0.6417091641684899 0.5209050479689261
 0.6417091641684899 0.5209050479689261
 0.6417091641684899 0.5209050479689261
 0.6492380644938135 0.5209050479689261
 0.6585513185198738 0.5209050479689261
 0.6417091641684899 0.5209050479689261
 0.6551540319950484 0.5209050479689261
 0.6551540319950484 0.5209050479689261
 0.6417091641684899 0.5209050479689261
 0.6551540319950484 0.5209050479689261
 0.6526353510186389 0.5209050479689261
 0.6585513185198738 0.5209050479689261
 0.6551540319950484 0.5209050479689261
 0.6719961863464323 0.5209050479689261
 0.6417091641684899 0.5209050479689261
 0.6492380644938135 0.5209050479689261
 0.6551540319950484 0.5209050479689261
 0.6417091641684899 0.5209050479689261
 0.6719961863464323 0.5209050479689261
 0.6417091641684899 0.5209050479689261
 0.6551540319950484 0.5209050479689261
 0.6417091641684899 0.5209050479689261
 0.6551540319950484 0.5209050479689261
 0.6417091641684899 0.5209050479689261
 0.6551540319950484 0.5209050479689261
 0.6417091641684899 0.5209050479689261
 0.635793196667255 0.5209050479689261
 0.6551540319950484 0.5209050479689261
 0.6417091641684899 0.5209050479689261
 0.6551540319950484 0.5209050479689261
 0.6492380644938135 0.5209050479689261
 0.6719961863464323 0.5209050479689261
 0.6551540319950484 0.5209050479689261
 0.6719961863464323 0.5209050479689261
 0.6551540319950484 0.5209050479689261
 0.6417091641684899 0.5209050479689261
 0.6417091641684899 0.5209050479689261
 0.6551540319950484 0.5209050479689261
 0.6551540319950484 0.5209050479689261
 0.6537669650142247 0.5209050479689261
 0.6551540319950484 0.5209050479689261
 0.6417091641684899 0.5209050479689261
 0.6719961863464323 0.5209050479689261
 0.6417091641684899 0.5209050479689261
 0.6585513185198738 0.5209050479689261
 0.6417091641684899 0.5209050479689261
 0.6417091641684899 0.5209050479689261
 0.6551540319950484 0.5209050479689261
 0.6551540319950484 0.5209050479689261
 0.6417091641684899 0.5209050479689261
 0.6585513185198738 0.5209050479689261
 0.6551540319950484 0.5209050479689261
 0.6551540319950484 0.5209050479689261
 0.6551540319950484 0.5209050479689261
 0.6719961863464323 0.5209050479689261
 0.6551540319950484 0.5209050479689261
 0.6585513185198738 0.5209050479689261
 0.6719961863464323 0.5209050479689261
 0.6719961863464323 0.5209050479689261
 0.612548067833757 0.5209050479689261
 0.6417091641684899 0.5209050479689261
 0.6417091641684899 0.5209050479689261
 0.6417091641684899 0.5209050479689261
 0.6417091641684899 0.5209050479689261
 0.6719961863464323 0.5209050479689261
 0.6417091641684899 0.5209050479689261
 0.6551540319950484 0.5209050479689261
 0.6417091641684899 0.5209050479689261
 0.6719961863464323 0.5209050479689261
 0.6551540319950484 0.5209050479689261
 0.635793196667255 0.5209050479689261
 0.6585513185198738 0.5209050479689261
 0.6417091641684899 0.5209050479689261
 0.6417091641684899 0.5209050479689261
 0.6417091641684899 0.5209050479689261
 0.6417091641684899 0.5209050479689261
 0.6021714372245064 0.5209050479689261
 0.6417091641684899 0.5209050479689261
 0.612548067833757 0.5209050479689261
 0.6585513185198738 0.5209050479689261
 0.6551540319950484 0.5209050479689261
 0.6529881954036221 0.5209050479689261
 0.6417091641684899 0.5209050479689261
 0.6551540319950484 0.5209050479689261
 0.6417091641684899 0.5209050479689261
 0.635793196667255 0.5209050479689261
 0.6417091641684899 0.5209050479689261
 0.6417091641684899 0.5209050479689261
 0.6551540319950484 0.5209050479689261
 0.612548067833757 0.5209050479689261
 0.6551540319950484 0.5209050479689261
 0.6585513185198738 0.5209050479689261
 0.635793196667255 0.5209050479689261
 0.6551540319950484 0.5209050479689261
 0.6585513185198738 0.5209050479689261
 0.6417091641684899 0.5209050479689261
 0.6585513185198738 0.5209050479689261
 0.6551540319950484 0.5209050479689261
 0.6417091641684899 0.5209050479689261
 0.6719961863464323 0.5209050479689261
 0.635793196667255 0.5209050479689261
 0.6585513185198738 0.5209050479689261
 0.6585513185198738 0.5209050479689261
 0.635793196667255 0.5209050479689261
 0.6585513185198738 0.5209050479689261
 0.6551540319950484 0.5209050479689261
 0.6551540319950484 0.5209050479689261
 0.6551540319950484 0.5209050479689261
 0.6417091641684899 0.5209050479689261
 0.6585513185198738 0.5209050479689261
 0.6719961863464323 0.5209050479689261
 0.6719961863464323 0.5209050479689261
 0.5991032000071985 0.5209050479689261
 0.5671546106375835 0.5209050479689261
 0.6585513185198738 0.5209050479689261
 0.6719961863464323 0.5209050479689261
 0.6492380644938135 0.5209050479689261
 0.6418602910531953 0.5209050479689261
 0.6551540319950484 0.5209050479689261
 0.6719961863464323 0.5209050479689261
 0.635793196667255 0.5209050479689261
 0.6417091641684899 0.5209050479689261
 0.6551540319950484 0.5209050479689261
 0.6551540319950484 0.5209050479689261
 0.6417091641684899 0.5209050479689261
 0.6417091641684899 0.5209050479689261
 0.6551540319950484 0.5209050479689261
 0.6492380644938135 0.5209050479689261
 0.6417091641684899 0.5209050479689261
 0.6417091641684899 0.5209050479689261
 0.6417091641684899 0.5209050479689261
 0.6585513185198738 0.5209050479689261
 0.5839967649889675 0.5209050479689261
 0.6417091641684899 0.5209050479689261
 0.6417091641684899 0.5209050479689261
 0.6417091641684899 0.5209050479689261
 0.5427233187118311 0.5209050479689261
 0.6585513185198738 0.5209050479689261
 0.6719961863464323 0.5209050479689261
 0.6417091641684899 0.5209050479689261
 0.6417091641684899 0.5209050479689261
 0.6417091641684899 0.5209050479689261
 0.6551540319950484 0.5209050479689261
 0.6719961863464323 0.5209050479689261
 0.6551540319950484 0.5209050479689261
 0.6711388613072863 0.5209050479689261
 0.6417091641684899 0.5209050479689261
 0.635793196667255 0.5209050479689261
 0.6719961863464323 0.5209050479689261
 0.6719961863464323 0.5209050479689261
 0.6417091641684899 0.5209050479689261
 0.6551540319950484 0.5209050479689261
 0.6719961863464323 0.5209050479689261
 0.6417091641684899 0.5209050479689261
 0.635793196667255 0.5209050479689261
 0.6585513185198738 0.5209050479689261
 0.6417091641684899 0.5209050479689261
 0.6417091641684899 0.5209050479689261
 0.6551540319950484 0.5209050479689261
 0.6551540319950484 0.5209050479689261
 0.6719961863464323 0.5209050479689261
 0.6551540319950484 0.5209050479689261
 0.6719961863464323 0.5209050479689261
 0.6417091641684899 0.5209050479689261
 0.6585513185198738 0.5209050479689261
 0.6551540319950484 0.5209050479689261
 0.6719961863464323 0.5209050479689261
 0.6417091641684899 0.5209050479689261
 0.6492380644938135 0.5209050479689261
 0.6551540319950484 0.5209050479689261
 0.5991032000071985 0.5209050479689261
 0.6417091641684899 0.5209050479689261
 0.6417091641684899 0.5209050479689261
 0.6417091641684899 0.5209050479689261
 0.6551540319950484 0.5209050479689261
 0.6719961863464323 0.5209050479689261
 0.5853292828731225 0.5209050479689261
 0.6417091641684899 0.5209050479689261
 0.6417091641684899 0.5209050479689261
 0.6551540319950484 0.5209050479689261
 0.6585513185198738 0.5209050479689261
 0.6417091641684899 0.5209050479689261
 0.6551540319950484 0.5209050479689261
 0.635793196667255 0.5209050479689261
 0.6417091641684899 0.5209050479689261
 0.6719961863464323 0.5209050479689261
 0.6417091641684899 0.5209050479689261
 0.6417091641684899 0.5209050479689261
 0.6585513185198738 0.5209050479689261
 0.6585513185198738 0.5209050479689261
 0.6417091641684899 0.5209050479689261
 0.6417091641684899 0.5209050479689261
 0.635793196667255 0.5209050479689261
 0.6585513185198738 0.5209050479689261
 0.6417091641684899 0.5209050479689261
 0.6417091641684899 0.5209050479689261
 0.6417091641684899 0.5209050479689261
 0.6551540319950484 0.5209050479689261
 0.6719961863464323 0.5209050479689261
 0.6417091641684899 0.5209050479689261
 0.6417091641684899 0.5209050479689261
 0.6417091641684899 0.5209050479689261
 0.6417091641684899 0.5209050479689261
 0.6417091641684899 0.5209050479689261
 0.6585513185198738 0.5209050479689261
 0.6417091641684899 0.5209050479689261
 0.6551540319950484 0.5209050479689261
 0.635793196667255 0.5209050479689261
 0.6551540319950484 0.5209050479689261
 0.6417091641684899 0.5209050479689261
 0.6585513185198738 0.5209050479689261
 0.6719961863464323 0.5209050479689261
 0.6719961863464323 0.5209050479689261
 0.6719961863464323 0.5209050479689261
 0.6551540319950484 0.5209050479689261
 0.6417091641684899 0.5209050479689261
 0.6551540319950484 0.5209050479689261
 0.6551540319950484 0.5209050479689261
 0.6551540319950484 0.5209050479689261
 0.6551540319950484 0.5209050479689261
 0.6551540319950484 0.5209050479689261
 0.635793196667255 0.5209050479689261
 0.6719961863464323 0.5209050479689261
 0.6585513185198738 0.5209050479689261
 0.6417091641684899 0.5209050479689261
 0.6551540319950484 0.5209050479689261
 0.6417091641684899 0.5209050479689261
 0.597441632815526 0.5209050479689261
 0.6417091641684899 0.5209050479689261
 0.6719961863464323 0.5209050479689261
 0.6551540319950484 0.5209050479689261
 0.5242195971687746 0.5209050479689261
 0.6585513185198738 0.5209050479689261
 0.6551540319950484 0.5209050479689261
 0.6551540319950484 0.5209050479689261
 0.6417091641684899 0.5209050479689261
 0.6660802188451974 0.5209050479689261
 0.635793196667255 0.5209050479689261
 0.6417091641684899 0.5209050479689261
 0.6551540319950484 0.5209050479689261
 0.6526353510186389 0.5209050479689261
 0.6719961863464323 0.5209050479689261
 0.629390222185141 0.5209050479689261
 0.6417091641684899 0.5209050479689261
 0.6551540319950484 0.5209050479689261