# Created by Octave 4.0.0, Tue May 15 15:58:54 2018 CEST <olethros@olethros-OptiPlex-9010>
# name: results
# type: struct
# ndims: 2
 1 5
# length: 8
# name: options
# type: cell
# rows: 1
# columns: 5
# name: <cell-element>
# type: scalar struct
# ndims: 2
 1 1
# length: 8
# name: A
# type: scalar
2


# name: X
# type: scalar
8


# name: Y
# type: scalar
2


# name: Z
# type: scalar
2


# name: lambda
# type: scalar
0


# name: n_iter
# type: scalar
10000


# name: horizon
# type: scalar
1000


# name: n_samples
# type: scalar
16





# name: <cell-element>
# type: scalar struct
# ndims: 2
 1 1
# length: 8
# name: A
# type: scalar
2


# name: X
# type: scalar
8


# name: Y
# type: scalar
2


# name: Z
# type: scalar
2


# name: lambda
# type: scalar
0.25


# name: n_iter
# type: scalar
10000


# name: horizon
# type: scalar
1000


# name: n_samples
# type: scalar
16





# name: <cell-element>
# type: scalar struct
# ndims: 2
 1 1
# length: 8
# name: A
# type: scalar
2


# name: X
# type: scalar
8


# name: Y
# type: scalar
2


# name: Z
# type: scalar
2


# name: lambda
# type: scalar
0.5


# name: n_iter
# type: scalar
10000


# name: horizon
# type: scalar
1000


# name: n_samples
# type: scalar
16





# name: <cell-element>
# type: scalar struct
# ndims: 2
 1 1
# length: 8
# name: A
# type: scalar
2


# name: X
# type: scalar
8


# name: Y
# type: scalar
2


# name: Z
# type: scalar
2


# name: lambda
# type: scalar
0.75


# name: n_iter
# type: scalar
10000


# name: horizon
# type: scalar
1000


# name: n_samples
# type: scalar
16





# name: <cell-element>
# type: scalar struct
# ndims: 2
 1 1
# length: 8
# name: A
# type: scalar
2


# name: X
# type: scalar
8


# name: Y
# type: scalar
2


# name: Z
# type: scalar
2


# name: lambda
# type: scalar
1


# name: n_iter
# type: scalar
10000


# name: horizon
# type: scalar
1000


# name: n_samples
# type: scalar
16







# name: PU
# type: cell
# rows: 1
# columns: 5
# name: <cell-element>
# type: matrix
# rows: 1000
# columns: 2
 0.5299593121824153 0.4899625667145064
 0.3861725904293518 0.4899625667145064
 0.5257561151047635 0.4899625667145064
 0.5192890188371629 0.4899625667145064
 0.5543558633829532 0.4899625667145064
 0.5360491465297876 0.4413238623781964
 0.5128179978634041 0.4603480380877953
 0.5249412863950336 0.5426365927209886
 0.5134393206873418 0.5588952125810166
 0.5265031017750873 0.556124105068471
 0.5373434750458729 0.5346297332559417
 0.5460546716583653 0.5451625310080311
 0.5219370209447598 0.5279631723104142
 0.522406438704944 0.5219704183524858
 0.5084233709462116 0.5355023090288115
 0.4698148710988267 0.5396017646882351
 0.5164419515985145 0.5200805632484633
 0.5109602911488067 0.5357505764837237
 0.5024648412348284 0.5110669121537893
 0.5163227904902784 0.5545362382789177
 0.523885406580835 0.548849262461781
 0.4921953991594986 0.5590633304436579
 0.4720902249678254 0.5513860613944817
 0.5133506607273677 0.5535662949064334
 0.5013010243783979 0.5604993499022513
 0.4901451547640467 0.5160253298314132
 0.5176893958874268 0.5718678490543727
 0.5159400536815687 0.5567724949551899
 0.5006466771742303 0.5603195337129298
 0.5028875450132744 0.5782107285346642
 0.5243756620774495 0.5721663352060469
 0.4985830283664184 0.5607308036417327
 0.4998235513233354 0.5483025836359832
 0.4989480113789069 0.5600956277926025
 0.4949676039110742 0.5665232583349931
 0.4952993808381104 0.5582336668041792
 0.4949855449682581 0.553235078246422
 0.4947301143988787 0.5642211993923795
 0.5400451375462005 0.5553684044479543
 0.5363841974514642 0.5573276797361324
 0.4879408012032576 0.5538685175076468
 0.5433294402049311 0.5564019263117185
 0.5295977655160695 0.5546200068562868
 0.5330128186219544 0.5510082097552617
 0.4915470542287482 0.5653460711979672
 0.4931686850669497 0.5540955439458863
 0.4948794294518726 0.5436645220403257
 0.541852097060092 0.5519153757036472
 0.5414558507351586 0.5548968191733186
 0.4846202130989385 0.5653750554861673
 0.5423209220204911 0.5616452371359338
 0.5415729989161464 0.5588665471552496
 0.5227101816783598 0.5585592046521529
 0.4992166760698206 0.5515093115466175
 0.5057265119690249 0.5597510127250578
 0.4968026415476235 0.5505300939995016
 0.5364442489516966 0.5632901908610806
 0.5427788215394117 0.5452795415474782
 0.5408259802233941 0.5682063695312707
 0.5403524696000123 0.559328964869615
 0.5434965703902922 0.5583516863402618
 0.5397410095236546 0.5629442978856262
 0.5391999369439866 0.5505519387404469
 0.5398492872961375 0.5479775266994561
 0.5400401107398107 0.5432552555684738
 0.5401823646227866 0.547885517834203
 0.5434878048707417 0.5569037283287532
 0.5365286709601426 0.5404552568557492
 0.5359395887717587 0.5599986234901113
 0.5701279596998772 0.5416478507884728
 0.5377739052110546 0.5482259918887912
 0.5408383847962211 0.5423961890751243
 0.5385771605073175 0.5646871936628701
 0.5399839631784682 0.5570542689964205
 0.5434727581635449 0.5563910467330905
 0.5399527137222389 0.555591353555872
 0.5437335702603052 0.5567428971578557
 0.5389785957736027 0.5499626033739557
 0.5400894946288932 0.5661525031252245
 0.5355701510622455 0.5678825105979908
 0.5386046931191177 0.5656065791169974
 0.5399839631784682 0.5530508868420593
 0.5396521250883557 0.5457808830817761
 0.5356461575298209 0.5551210402325061
 0.5396859345053798 0.5414378318473055
 0.539864942528258 0.5684784401412263
 0.5409138591061708 0.5502082231410355
 0.5399839631784682 0.5469509923812841
 0.5393295391437516 0.5686596932610354
 0.5387228189527846 0.5548902710628907
 0.5396206325864976 0.5477250997674092
 0.5385964380982576 0.553129336534921
 0.5394662486430025 0.5629003273902591
 0.5394745359942887 0.5567436331143814
 0.5409197484095649 0.5588377993760656
 0.5405612772875468 0.5520885359628823
 0.5370878451826415 0.5656838327383445
 0.5348746193707294 0.5685885616556231
 0.5400206849370076 0.5466404655161731
 0.5400237361779567 0.5553802031536147
 0.5339386357416318 0.560437748137781
 0.5393969032498458 0.555254596550392
 0.5403283450078551 0.5647807867663867
 0.5387326237016272 0.5490942632223599
 0.5422378996079316 0.5547234364328686
 0.5385286832916489 0.5696920592578869
 0.5429218931244001 0.5696920592578869
 0.5658642962071321 0.5696920592578869
 0.5406396839916043 0.5696920592578869
 0.5594982812401217 0.5696920592578869
 0.5274103481157588 0.5696920592578869
 0.5696920592578869 0.5696920592578869
 0.5291930761301838 0.5696920592578869
 0.5691512420073754 0.5696920592578869
 0.5703016975190928 0.5696920592578869
 0.5671012797409644 0.5696920592578869
 0.5693415867921306 0.5696920592578869
 0.5689166322655903 0.5696920592578869
 0.5682012358335035 0.5696920592578869
 0.5251090540066278 0.5696920592578869
 0.5692918989172391 0.5696920592578869
 0.5664506520424988 0.5696920592578869
 0.5093207257239419 0.5696920592578869
 0.5243751378016148 0.5696920592578869
 0.5243751378016148 0.5696920592578869
 0.5663995375024564 0.5696920592578869
 0.5696781272073094 0.5696920592578869
 0.5320540462096491 0.5696920592578869
 0.5246748994040125 0.5696920592578869
 0.5251110851758212 0.5696920592578869
 0.5668685429522061 0.5696920592578869
 0.5684684276374977 0.5696920592578869
 0.5646414525588267 0.5696920592578869
 0.501291185897611 0.5696920592578869
 0.5683404900762301 0.5696920592578869
 0.5245372041938806 0.5696920592578869
 0.5266313549207684 0.5696920592578869
 0.5242256590405497 0.5696920592578869
 0.5194198407848866 0.5696920592578869
 0.5209961092734506 0.5696920592578869
 0.5283672942090568 0.5696920592578869
 0.5234558523288559 0.5696920592578869
 0.5687811636752502 0.5696920592578869
 0.5190792759981031 0.5696920592578869
 0.5238223361871617 0.5696920592578869
 0.5404803256027551 0.5696920592578869
 0.5205159340617672 0.5696920592578869
 0.5253176892642014 0.5696920592578869
 0.5194073524495322 0.5696920592578869
 0.524539779586112 0.5696920592578869
 0.495059472993045 0.5696920592578869
 0.5251349824263304 0.5696920592578869
 0.5268116087836643 0.5696920592578869
 0.525201126370301 0.5696920592578869
 0.5172817282667718 0.5696920592578869
 0.5238278217477699 0.5696920592578869
 0.5237401449266132 0.5696920592578869
 0.5280291248558256 0.5696920592578869
 0.523910173111966 0.5696920592578869
 0.5243751378016148 0.5696920592578869
 0.518970581717819 0.5696920592578869
 0.5250619302826699 0.5696920592578869
 0.525195542937949 0.5696920592578869
 0.5256077596146957 0.5696920592578869
 0.4872121590302566 0.5696920592578869
 0.569383569851422 0.5696920592578869
 0.5692870752681652 0.5696920592578869
 0.5263763378228278 0.5696920592578869
 0.5631839603521099 0.5696920592578869
 0.5655131548468358 0.5696920592578869
 0.5631385316076535 0.5696920592578869
 0.5186534149733273 0.5696920592578869
 0.5678602983062382 0.5696920592578869
 0.5696920592578869 0.5696920592578869
 0.5283382179981349 0.5696920592578869
 0.5684159066360067 0.5696920592578869
 0.5701615894380938 0.5696920592578869
 0.5691447453988236 0.5696920592578869
 0.5260899260188059 0.5696920592578869
 0.52453035612302 0.5696920592578869
 0.5186339185377532 0.5696920592578869
 0.5684967290931556 0.5696920592578869
 0.5246437134839161 0.5696920592578869
 0.5696920592578869 0.5696920592578869
 0.5624544990823915 0.5696920592578869
 0.5676482492764563 0.5696920592578869
 0.5697001591644467 0.5696920592578869
 0.5237590215693065 0.5696920592578869
 0.5647003333283015 0.5696920592578869
 0.5587667645213393 0.5696920592578869
 0.5272261732166085 0.5696920592578869
 0.5685833122025099 0.5696920592578869
 0.5699375580980605 0.5696920592578869
 0.570139193434032 0.5696920592578869
 0.5654108731243418 0.5696920592578869
 0.5614728978834552 0.5696920592578869
 0.5106318572502966 0.5696920592578869
 0.5693602775627503 0.5696920592578869
 0.5575540084685183 0.5696920592578869
 0.5621719519245546 0.5696920592578869
 0.5707372107953705 0.5696920592578869
 0.5729607802986418 0.5696920592578869
 0.5696920592578869 0.5696920592578869
 0.569502814351873 0.5696920592578869
 0.569073372673193 0.5696920592578869
 0.5686929324641843 0.5696920592578869
 0.5699498926339118 0.5696920592578869
 0.5705734488973579 0.5696920592578869
 0.5707953046374307 0.5696920592578869
 0.5695296308585432 0.5696920592578869
 0.5651468328437467 0.5696920592578869
 0.5674539160247825 0.5696920592578869
 0.5695406190411629 0.5696920592578869
 0.5651127888820435 0.5696920592578869
 0.5693491493002353 0.5696920592578869
 0.5688512436476572 0.5696920592578869
 0.5639189699132596 0.5696920592578869
 0.5690579108380457 0.5696920592578869
 0.5692120645964848 0.5696920592578869
 0.5694454329917256 0.5696920592578869
 0.5693442166674089 0.5696920592578869
 0.5609699941909595 0.5696920592578869
 0.5697995433523881 0.5696920592578869
 0.569542957726963 0.5696920592578869
 0.5686671789790161 0.5696920592578869
 0.5635216859122706 0.5696920592578869
 0.5696979350226508 0.5696920592578869
 0.5682678202429039 0.5696920592578869
 0.5696153290397462 0.5696920592578869
 0.5676243655262498 0.5696920592578869
 0.568114070507178 0.5696920592578869
 0.5690972732107713 0.5696920592578869
 0.5680534429644004 0.5696920592578869
 0.5694591610267856 0.5696920592578869
 0.5639852678402847 0.5696920592578869
 0.5694881762463968 0.5696920592578869
 0.570060953686825 0.5696920592578869
 0.5696830921946687 0.5696920592578869
 0.569687742503023 0.5696920592578869
 0.5681943004680627 0.5696920592578869
 0.5696218894770757 0.5696920592578869
 0.5720667500540312 0.5696920592578869
 0.570032020124823 0.5696920592578869
 0.5674257694686773 0.5696920592578869
 0.5611896013357447 0.5696920592578869
 0.5662784187463151 0.5696920592578869
 0.5693945751340446 0.5696920592578869
 0.5692500337077455 0.5696920592578869
 0.56960854352562 0.5696920592578869
 0.5686114257814315 0.5696920592578869
 0.5709978327134004 0.5696920592578869
 0.5703379406610927 0.5696920592578869
 0.5720076212819112 0.5696920592578869
 0.5691619736772109 0.5696920592578869
 0.5687179599822654 0.5696920592578869
 0.5696063718809538 0.5696920592578869
 0.5688921912590189 0.5696920592578869
 0.5708708659295082 0.5696920592578869
 0.5700930000226495 0.5696920592578869
 0.5690137274270417 0.5696920592578869
 0.5695071408833374 0.5696920592578869
 0.5689057102875013 0.5696920592578869
 0.5657879084006519 0.5696920592578869
 0.5719012353237187 0.5696920592578869
 0.5678558257316191 0.5696920592578869
 0.5563967265001346 0.5696920592578869
 0.569982866722307 0.5696920592578869
 0.5696002259649781 0.5696920592578869
 0.5611656033371699 0.5696920592578869
 0.5698701539286709 0.5696920592578869
 0.5700729220319775 0.5696920592578869
 0.5674112622062236 0.5696920592578869
 0.5696920592578869 0.5696920592578869
 0.563380283189978 0.5696920592578869
 0.5691298898855948 0.5696920592578869
 0.5679114195367967 0.5696920592578869
 0.5685318855351666 0.5696920592578869
 0.5698195465220228 0.5696920592578869
 0.5692632030857958 0.5696920592578869
 0.540178278691435 0.5696920592578869
 0.5694697902156779 0.5696920592578869
 0.5696920592578869 0.5696920592578869
 0.5683866568891707 0.5696920592578869
 0.5696126591384447 0.5696920592578869
 0.5696920592578869 0.5696920592578869
 0.5655287508867607 0.5696920592578869
 0.5696920592578869 0.5696920592578869
 0.5619238088211861 0.5696920592578869
 0.5696920592578869 0.5696920592578869
 0.5686569366846712 0.5696920592578869
 0.5699396477172006 0.5696920592578869
 0.5663074995823154 0.5696920592578869
 0.5682262720205018 0.5696920592578869
 0.5685513756704307 0.5696920592578869
 0.5674243154457723 0.5696920592578869
 0.5691406883703853 0.5696920592578869
 0.5583452025142388 0.5696920592578869
 0.5689821113590712 0.5696920592578869
 0.5704957880426056 0.5696920592578869
 0.5687639068605918 0.5696920592578869
 0.5697423988919537 0.5696920592578869
 0.5610065193918665 0.5696920592578869
 0.5697270847333517 0.5696920592578869
 0.5709694971721552 0.5696920592578869
 0.5695350750159661 0.5696920592578869
 0.5696920592578869 0.5696920592578869
 0.5692157837266709 0.5696920592578869
 0.5688928498310917 0.5696920592578869
 0.5709967371349888 0.5696920592578869
 0.5667038796861983 0.5696920592578869
 0.5689059062490835 0.5696920592578869
 0.5685942521345596 0.5696920592578869
 0.5693599393221809 0.5696920592578869
 0.5694054129571048 0.5696920592578869
 0.5667835146990662 0.5696920592578869
 0.570629822727329 0.5696920592578869
 0.5686959175381501 0.5696920592578869
 0.5694376910549708 0.5696920592578869
 0.5702126631923042 0.5696920592578869
 0.5725589714768232 0.5696920592578869
 0.5702068786698433 0.5696920592578869
 0.5688498059166026 0.5696920592578869
 0.5704357435564207 0.5696920592578869
 0.5694254786981506 0.5696920592578869
 0.5696920592578869 0.5696920592578869
 0.5694139686425421 0.5696920592578869
 0.5696183053052147 0.5696920592578869
 0.5692402315766812 0.5696920592578869
 0.5696920592578869 0.5696920592578869
 0.5708409734433886 0.5696920592578869
 0.5655800756050474 0.5696920592578869
 0.5691713124936851 0.5696920592578869
 0.5262526001096448 0.5696920592578869
 0.5719390257976577 0.5696920592578869
 0.5688535534456569 0.5696920592578869
 0.569772977898233 0.5696920592578869
 0.5692579928122565 0.5696920592578869
 0.569236052724531 0.5696920592578869
 0.5690903540532998 0.5696920592578869
 0.5696523374362816 0.5696920592578869
 0.5696920592578869 0.5696920592578869
 0.5710032472425206 0.5696920592578869
 0.5696920592578869 0.5696920592578869
 0.5675974480656867 0.5696920592578869
 0.5706610815696445 0.5696920592578869
 0.5696920592578869 0.5696920592578869
 0.5696928300633529 0.5696920592578869
 0.5689670554586418 0.5696920592578869
 0.5671145516994148 0.5696920592578869
 0.5696920592578869 0.5696920592578869
 0.5695503298954743 0.5696920592578869
 0.5696334546794981 0.5696920592578869
 0.569845954616699 0.5696920592578869
 0.5684217337140025 0.5696920592578869
 0.5694654781253393 0.5696920592578869
 0.5695671887070557 0.5696920592578869
 0.5673163871278657 0.5696920592578869
 0.5695693682234334 0.5696920592578869
 0.5691818548523512 0.5696920592578869
 0.5698680025383495 0.5696920592578869
 0.5693578089199816 0.5696920592578869
 0.5697264908295339 0.5696920592578869
 0.5673463458206103 0.5696920592578869
 0.5680011523257597 0.5696920592578869
 0.5694399140083314 0.5696920592578869
 0.5692767711279433 0.5696920592578869
 0.5699251095687738 0.5696920592578869
 0.5700273556592073 0.5696920592578869
 0.5647063613324654 0.5696920592578869
 0.564017371490554 0.5696920592578869
 0.5624332048383246 0.5696920592578869
 0.5697665388159109 0.5696920592578869
 0.5681077814201246 0.5696920592578869
 0.569407798647508 0.5696920592578869
 0.5692233949390137 0.5696920592578869
 0.56956911858704 0.5696920592578869
 0.5696840632207805 0.5696920592578869
 0.5690742317845573 0.5696920592578869
 0.5676776643792762 0.5696920592578869
 0.5686540178500087 0.5696920592578869
 0.5694166149163992 0.5696920592578869
 0.5610938365960465 0.5696920592578869
 0.5697019975003066 0.5696920592578869
 0.5692725550291384 0.5696920592578869
 0.5697500044876785 0.5696920592578869
 0.5695185505223765 0.5696920592578869
 0.5693102549188629 0.5696920592578869
 0.5707089825877 0.5696920592578869
 0.5706315959134233 0.5696920592578869
 0.5690691507505624 0.5696920592578869
 0.5688323429641275 0.5696920592578869
 0.5698998138457713 0.5696920592578869
 0.5697208785503873 0.5696920592578869
 0.5697357409448971 0.5696920592578869
 0.5688908932266072 0.5696920592578869
 0.5683354142905783 0.5696920592578869
 0.5696463487735024 0.5696920592578869
 0.5693832976008171 0.5696920592578869
 0.5670913440808794 0.5696920592578869
 0.5698484723249554 0.5696920592578869
 0.5685202727987995 0.5696920592578869
 0.5695911148088583 0.5696920592578869
 0.5696671918921009 0.5696920592578869
 0.5597632356647698 0.5696920592578869
 0.5694757549904919 0.5696920592578869
 0.5692053558463821 0.5696920592578869
 0.569765528938957 0.5696920592578869
 0.5696920592578869 0.5696920592578869
 0.5687324230336949 0.5696920592578869
 0.5698046720256701 0.5696920592578869
 0.5702581404224547 0.5696920592578869
 0.56487337212998 0.5696920592578869
 0.5696920592578869 0.5696920592578869
 0.5692906054903695 0.5696920592578869
 0.5690514391116505 0.5696920592578869
 0.5643876527019716 0.5696920592578869
 0.5696265125551142 0.5696920592578869
 0.5701894902677026 0.5696920592578869
 0.5696713164037305 0.5696920592578869
 0.568419099874873 0.5696920592578869
 0.5698168274216389 0.5696920592578869
 0.5700539392802382 0.5696920592578869
 0.5701795693693581 0.5696920592578869
 0.5724227753268498 0.5696920592578869
 0.56543740596782 0.5696920592578869
 0.568753104607893 0.5696920592578869
 0.5696928100976694 0.5696920592578869
 0.5691694701214159 0.5696920592578869
 0.5696549714288346 0.5696920592578869
 0.5550948609370483 0.5696920592578869
 0.5691370162724543 0.5696920592578869
 0.5689625512341063 0.5696920592578869
 0.5710876710878641 0.5696920592578869
 0.5591837778044635 0.5696920592578869
 0.57314565975662 0.5696920592578869
 0.5698183523656837 0.5696920592578869
 0.5694324663084579 0.5696920592578869
 0.5598812489741486 0.5696920592578869
 0.5696597843312651 0.5696920592578869
 0.5698152118797261 0.5696920592578869
 0.5623392967189591 0.5696920592578869
 0.558650853269455 0.5696920592578869
 0.5707271799881758 0.5696920592578869
 0.5642806681356828 0.5696920592578869
 0.5695262299606222 0.5696920592578869
 0.5696457832695756 0.5696920592578869
 0.5688031122006083 0.5696920592578869
 0.5696920592578869 0.5696920592578869
 0.5698042114249335 0.5696920592578869
 0.5694029818642978 0.5696920592578869
 0.5646567219761059 0.5696920592578869
 0.5697524914742004 0.5696920592578869
 0.564876519097302 0.5696920592578869
 0.5711805570236794 0.5696920592578869
 0.5697679798413481 0.5696920592578869
 0.5679744311884563 0.5696920592578869
 0.5695397812146239 0.5696920592578869
 0.5675185035392266 0.5696920592578869
 0.5696522283865213 0.5696920592578869
 0.5650474962201836 0.5696920592578869
 0.5696920592578869 0.5696920592578869
 0.569692985805506 0.5696920592578869
 0.5658819108094333 0.5696920592578869
 0.5696938597455846 0.5696920592578869
 0.5699630351892617 0.5696920592578869
 0.5693645948268216 0.5696920592578869
 0.570293580624794 0.5696920592578869
 0.5697068798641027 0.5696920592578869
 0.5696154883711143 0.5696920592578869
 0.5695627792639645 0.5696920592578869
 0.5715686173669398 0.5696920592578869
 0.5694956775017054 0.5696920592578869
 0.5694949562335874 0.5696920592578869
 0.5699994093465633 0.5696920592578869
 0.5701110114548052 0.5696920592578869
 0.5682548673436333 0.5696920592578869
 0.5709411403881869 0.5696920592578869
 0.5690939459813849 0.5696920592578869
 0.5666538204188315 0.5696920592578869
 0.5688458814136338 0.5696920592578869
 0.5697254631802635 0.5696920592578869
 0.5717725318418125 0.5696920592578869
 0.5696920592578869 0.5696920592578869
 0.5663710809053771 0.5696920592578869
 0.5690846886924955 0.5696920592578869
 0.5622137454577524 0.5696920592578869
 0.5672506459834848 0.5696920592578869
 0.5642258736926686 0.5696920592578869
 0.5684426133761077 0.5696920592578869
 0.562440944861139 0.5696920592578869
 0.5697293762646869 0.5696920592578869
 0.5708179180128625 0.5696920592578869
 0.5698636858825871 0.5696920592578869
 0.5696920592578869 0.5696920592578869
 0.5696920592578869 0.5696920592578869
 0.569211195955001 0.5696920592578869
 0.5695561865582681 0.5696920592578869
 0.5695755667523437 0.5696920592578869
 0.5696443495936062 0.5696920592578869
 0.5696920592578869 0.5696920592578869
 0.5698261639997212 0.5696920592578869
 0.5682707168064838 0.5696920592578869
 0.5677382249743999 0.5696920592578869
 0.5696920592578869 0.5696920592578869
 0.5703380101788195 0.5696920592578869
 0.5697076464433734 0.5696920592578869
 0.570304101084484 0.5696920592578869
 0.5697888730810869 0.5696920592578869
 0.568355234221066 0.5696920592578869
 0.5674373938122821 0.5696920592578869
 0.5728823314114658 0.5696920592578869
 0.5651609770435901 0.5696920592578869
 0.5662463677001779 0.5696920592578869
 0.5699035258818266 0.5696920592578869
 0.5696750936779431 0.5696920592578869
 0.5697950539394087 0.5696920592578869
 0.5676184101094456 0.5696920592578869
 0.5647243680058082 0.5696920592578869
 0.5660287571628783 0.5696920592578869
 0.5717899967975703 0.5696920592578869
 0.5685976454196244 0.5696920592578869
 0.5661471278047381 0.5696920592578869
 0.5658486212283399 0.5696920592578869
 0.570541737059148 0.5696920592578869
 0.5680860017093252 0.5696920592578869
 0.5695925635588661 0.5696920592578869
 0.5722296910767407 0.5696920592578869
 0.5703096265453286 0.5696920592578869
 0.566675618884672 0.5696920592578869
 0.5695844563014081 0.5696920592578869
 0.5675426026889092 0.5696920592578869
 0.5703631646287365 0.5696920592578869
 0.5685555860519554 0.5696920592578869
 0.5697028392872011 0.5696920592578869
 0.5696920592578869 0.5696920592578869
 0.5683871199171042 0.5696920592578869
 0.569417691702557 0.5696920592578869
 0.5686750319731033 0.5696920592578869
 0.5698455605517986 0.5696920592578869
 0.5686317517933265 0.5696920592578869
 0.5724706889647149 0.5696920592578869
 0.5692959802521245 0.5696920592578869
 0.5642371839983545 0.5696920592578869
 0.5681458335087319 0.5696920592578869
 0.569551099832981 0.5696920592578869
 0.5655373336329792 0.5696920592578869
 0.5677869950612604 0.5696920592578869
 0.5691485302706603 0.5696920592578869
 0.5693854606934134 0.5696920592578869
 0.5697024802724948 0.5696920592578869
 0.5698322825214925 0.5696920592578869
 0.5676288373292336 0.5696920592578869
 0.5693353052187657 0.5696920592578869
 0.5627389709202518 0.5696920592578869
 0.569599092273259 0.5696920592578869
 0.562493516848117 0.5696920592578869
 0.570959233336631 0.5696920592578869
 0.5675423457573759 0.5696920592578869
 0.5688478822823119 0.5696920592578869
 0.5709585756361913 0.5696920592578869
 0.5634714597388818 0.5696920592578869
 0.5702604385774659 0.5696920592578869
 0.5660040630505693 0.5696920592578869
 0.5582587013280411 0.5696920592578869
 0.5664298843689588 0.5696920592578869
 0.5697404720202619 0.5696920592578869
 0.5759022235118911 0.5696920592578869
 0.5692184423571828 0.5696920592578869
 0.5693689906998588 0.5696920592578869
 0.5696920592578869 0.5696920592578869
 0.568517659987963 0.5696920592578869
 0.5696920592578869 0.5696920592578869
 0.5697412226614013 0.5696920592578869
 0.5696920592578869 0.5696920592578869
 0.569670118059709 0.5696920592578869
 0.5702060872267933 0.5696920592578869
 0.5699619038772807 0.5696920592578869
 0.5704798972757925 0.5696920592578869
 0.5653770869885584 0.5696920592578869
 0.5698678753861779 0.5696920592578869
 0.5629577069292729 0.5696920592578869
 0.5701298945136456 0.5696920592578869
 0.5697195656872712 0.5696920592578869
 0.5679800854140492 0.5696920592578869
 0.5663018130760132 0.5696920592578869
 0.569994061016197 0.5696920592578869
 0.5643263930407859 0.5696920592578869
 0.5671664001124819 0.5696920592578869
 0.5696920592578869 0.5696920592578869
 0.5696787342432662 0.5696920592578869
 0.5696920592578869 0.5696920592578869
 0.5697289081837116 0.5696920592578869
 0.5682239597458635 0.5696920592578869
 0.564028729454215 0.5696920592578869
 0.5672379024933049 0.5696920592578869
 0.5667823000013773 0.5696920592578869
 0.5696057486706384 0.5696920592578869
 0.569651402175541 0.5696920592578869
 0.5669640001841553 0.5696920592578869
 0.5637852864788799 0.5696920592578869
 0.5662490050278178 0.5696920592578869
 0.5663077737446703 0.5696920592578869
 0.5693514924240143 0.5696920592578869
 0.569342246579556 0.5696920592578869
 0.5658426810867163 0.5696920592578869
 0.5657184522213441 0.5696920592578869
 0.5667578485697911 0.5696920592578869
 0.569439325114819 0.5696920592578869
 0.5605066109625356 0.5696920592578869
 0.5710166644422999 0.5696920592578869
 0.5696920592578869 0.5696920592578869
 0.5701587320118782 0.5696920592578869
 0.5693951065058177 0.5696920592578869
 0.5693639414173505 0.5696920592578869
 0.5694822026911526 0.5696920592578869
 0.569737785040098 0.5696920592578869
 0.5696920592578869 0.5696920592578869
 0.5696920592578869 0.5696920592578869
 0.5696112021996583 0.5696920592578869
 0.56946799733301 0.5696920592578869
 0.5688333420706604 0.5696920592578869
 0.5684780026697052 0.5696920592578869
 0.566675615202093 0.5696920592578869
 0.5686683598059127 0.5696920592578869
 0.5660116499758079 0.5696920592578869
 0.5575093876026314 0.5696920592578869
 0.569792571619234 0.5696920592578869
 0.5642264295814656 0.5696920592578869
 0.5588358474451196 0.5696920592578869
 0.5699054764666384 0.5696920592578869
 0.5713475743684128 0.5696920592578869
 0.5584651344325797 0.5696920592578869
 0.5718623160415609 0.5696920592578869
 0.5697423835779146 0.5696920592578869
 0.5688860787721985 0.5696920592578869
 0.5693592225471155 0.5696920592578869
 0.5702223684613766 0.5696920592578869
 0.5688926867034534 0.5696920592578869
 0.5688732574865197 0.5696920592578869
 0.5693556570195636 0.5696920592578869
 0.5663579790670867 0.5696920592578869
 0.5687843826588417 0.5696920592578869
 0.5696920592578869 0.5696920592578869
 0.5603213578636306 0.5696920592578869
 0.5694626063409732 0.5696920592578869
 0.5699496195610615 0.5696920592578869
 0.5694226713489351 0.5696920592578869
 0.5694742874346423 0.5696920592578869
 0.5697721607958869 0.5696920592578869
 0.5697380455765362 0.5696920592578869
 0.5702460708320112 0.5696920592578869
 0.5686159756432152 0.5696920592578869
 0.5684685089865423 0.5696920592578869
 0.5690515635201133 0.5696920592578869
 0.5698248974904538 0.5696920592578869
 0.5709140492933367 0.5696920592578869
 0.5703429933596406 0.5696920592578869
 0.5692030984717013 0.5696920592578869
 0.5691392227373421 0.5696920592578869
 0.5694290609928704 0.5696920592578869
 0.5694135151915072 0.5696920592578869
 0.5693173244386373 0.5696920592578869
 0.5710431694741857 0.5696920592578869
 0.5701895643793943 0.5696920592578869
 0.5690905902650775 0.5696920592578869
 0.5694177499601082 0.5696920592578869
 0.568824187462072 0.5696920592578869
 0.5703161153425828 0.5696920592578869
 0.5640463958745248 0.5696920592578869
 0.570538418441713 0.5696920592578869
 0.5693520252901173 0.5696920592578869
 0.5700595857322595 0.5696920592578869
 0.5702047539523433 0.5696920592578869
 0.5690877510737523 0.5696920592578869
 0.5697501619188287 0.5696920592578869
 0.5702500600458771 0.5696920592578869
 0.5539415207739627 0.5696920592578869
 0.5645082931213694 0.5696920592578869
 0.5665990289068332 0.5696920592578869
 0.5699607533623162 0.5696920592578869
 0.5692338005267049 0.5696920592578869
 0.5693923896931808 0.5696920592578869
 0.5702197758932801 0.5696920592578869
 0.5627080288332761 0.5696920592578869
 0.5680766978590116 0.5696920592578869
 0.5695102873659315 0.5696920592578869
 0.5700679021037846 0.5696920592578869
 0.5693291705004289 0.5696920592578869
 0.5696920592578869 0.5696920592578869
 0.5688905292913358 0.5696920592578869
 0.5699805650603359 0.5696920592578869
 0.5661310667291315 0.5696920592578869
 0.5700672432909397 0.5696920592578869
 0.5698172186061844 0.5696920592578869
 0.5695506012972217 0.5696920592578869
 0.5692641956740745 0.5696920592578869
 0.5681103917407528 0.5696920592578869
 0.56961925315366 0.5696920592578869
 0.5682576916904152 0.5696920592578869
 0.5691483846274215 0.5696920592578869
 0.5696920592578869 0.5696920592578869
 0.561251678370618 0.5696920592578869
 0.5696920592578869 0.5696920592578869
 0.5697133615761584 0.5696920592578869
 0.5660804399417035 0.5696920592578869
 0.5697380683287381 0.5696920592578869
 0.5706607697784586 0.5696920592578869
 0.5689832475723 0.5696920592578869
 0.5696920592578869 0.5696920592578869
 0.5692486191131475 0.5696920592578869
 0.5693289298711961 0.5696920592578869
 0.5671809574459556 0.5696920592578869
 0.5656965046488056 0.5696920592578869
 0.5708784480161626 0.5696920592578869
 0.5689829524371257 0.5696920592578869
 0.5695422715077574 0.5696920592578869
 0.5698530347868294 0.5696920592578869
 0.5696504689045715 0.5696920592578869
 0.564348445277483 0.5696920592578869