# Created by Octave 4.0.0, Mon May 07 22:54:04 2018 CEST <olethros@olethros-OptiPlex-9010>
# name: results
# type: struct
# ndims: 2
 1 5
# length: 7
# name: PU
# type: cell
# rows: 1
# columns: 5
# name: <cell-element>
# type: matrix
# rows: 1000
# columns: 2
 0.6303922817971352 0.5495158814540605
 0.4499980957217499 0.5881554954067463
 0.540312939470408 0.5523293042302554
 0.4570948132293898 0.5518010664224422
 0.4782022323366933 0.556070271259634
 0.4625640848856401 0.5595447057315417
 0.4571584734054197 0.5814081651229962
 0.5262133133785056 0.5976414801373751
 0.4422014973193291 0.5578297009454916
 0.6092377466279553 0.5474400751505261
 0.4903494073402033 0.5789046145236753
 0.4910540686481841 0.6191344351879046
 0.6457099142416449 0.570612120308793
 0.5370061788215335 0.6201460878325137
 0.5352599280292319 0.6345914555599731
 0.6043552863970479 0.5585340266243917
 0.4722108293599346 0.5739796867640985
 0.5755431117818439 0.5441562407269592
 0.6561848788866491 0.529563881529002
 0.589105152647711 0.5087389591799274
 0.5762216948168398 0.5250517139984745
 0.5367914457383874 0.5977777579400626
 0.5185545680529471 0.6147065585213056
 0.5186905805653725 0.5931442484775554
 0.5771973655733658 0.5831537293992062
 0.5233591302196532 0.607065150441439
 0.5184412989570031 0.6508641831994391
 0.6330163957101897 0.6150232218941559
 0.5850456004578004 0.6152548872632313
 0.6354721048783702 0.6197928853546651
 0.5223119364068571 0.6040406540198296
 0.5856619204728897 0.6466838573250561
 0.6431238794764087 0.605992249086404
 0.5791532434173854 0.5935111318374258
 0.6457585289113636 0.6235620005335543
 0.6576150389751416 0.6147167648197536
 0.6444278486785642 0.5839555875485947
 0.5755001501628698 0.589596523450265
 0.5833618102671737 0.6461687143180042
 0.5827726253291463 0.6175986056939676
 0.5818296338060529 0.6041721614211953
 0.6347140740118691 0.6007932383821355
 0.6446102276942546 0.6140402468975364
 0.5814349420599276 0.6467122457984549
 0.5174050269061656 0.6712697544204844
 0.5799636564910762 0.6346051501083606
 0.5777405455087674 0.6617548400523383
 0.6427191799555398 0.6887953562054121
 0.6450404247889481 0.6877350195880009
 0.6394117766697613 0.685232361423766
 0.6377543618189315 0.6672728181587924
 0.5938655088495024 0.6726339619929341
 0.6442928851747363 0.6759814597796815
 0.4801533887122033 0.6160154516500264
 0.5857977056399412 0.6672202999957119
 0.6040227166435841 0.6530860408707161
 0.6060455279529626 0.6286304476165848
 0.6038453462468554 0.608990932704122
 0.6452863992968059 0.612751430557595
 0.620723999496001 0.6400838024294692
 0.6036664219740024 0.6301956969035071
 0.604622756898052 0.6264634775670915
 0.5851640091387096 0.6611152065081312
 0.6459241756638372 0.6663738024840381
 0.54806904978396 0.6020196214560751
 0.545916616327655 0.574123975592939
 0.6433687236962768 0.6111037367012571
 0.5480962842350547 0.6385961839580334
 0.6040057494125382 0.6064139915275406
 0.6030530744247118 0.6685270839602623
 0.6427975661708172 0.6685133752859271
 0.6016976463647117 0.6364988602097076
 0.6461424286233882 0.6919078291276797
 0.6121364366826787 0.6953645862642274
 0.6021231226767735 0.6532487631728304
 0.6437303786016537 0.6683889188913779
 0.6454969878973493 0.6661073887803485
 0.6517283493608079 0.7071863000247276
 0.6462851709980235 0.7071863000247276
 0.6440868747901487 0.7071863000247276
 0.6356736705877284 0.7071863000247276
 0.6451277060423075 0.7071863000247276
 0.6446702064059393 0.7071863000247276
 0.6524537143116793 0.7071863000247276
 0.6466451202557608 0.7071863000247276
 0.6415876323829339 0.7071863000247276
 0.6470453853555589 0.7071863000247276
 0.6474311339178458 0.7071863000247276
 0.6468202944118207 0.7071863000247276
 0.6482280171066561 0.7071863000247276
 0.6438712623845988 0.6685726344792182
 0.6463811649409867 0.7071863000247276
 0.6441209583976162 0.7071863000247276
 0.6474311339178458 0.7071863000247276
 0.6463034654181383 0.7071863000247276
 0.6454495223901566 0.7071863000247276
 0.6458762407185137 0.7071863000247276
 0.6446136104292701 0.7071863000247276
 0.6455049444738261 0.7071863000247276
 0.6577576868375135 0.7071863000247276
 0.6468806255364019 0.7071863000247276
 0.6503827083752547 0.7071863000247276
 0.6464984114068459 0.7071863000247276
 0.6450477513425563 0.7071863000247276
 0.6474311339178458 0.7071863000247276
 0.6470137987769606 0.7071863000247276
 0.6474311339178458 0.7071863000247276
 0.6465489459598128 0.7071863000247276
 0.6488261415753578 0.7071863000247276
 0.6491204376622353 0.7071863000247276
 0.6471491363561532 0.7071863000247276
 0.6474311339178458 0.7071863000247276
 0.6471880595443769 0.7071863000247276
 0.6490386414931144 0.7071863000247276
 0.6483391593058101 0.7071863000247276
 0.6472789656036368 0.7071863000247276
 0.6474311339178458 0.7071863000247276
 0.6474311339178458 0.7071863000247276
 0.6447122654346489 0.7071863000247276
 0.6468427790844464 0.7071863000247276
 0.6433422006521642 0.7071863000247276
 0.6453662265666764 0.7071863000247276
 0.6470973098868342 0.7071863000247276
 0.6470856029298138 0.7071863000247276
 0.6474311339178458 0.7071863000247276
 0.6544590041946287 0.7071863000247276
 0.6436071651269859 0.7071863000247276
 0.6467165124282921 0.7071863000247276
 0.6474311339178458 0.7071863000247276
 0.6460774054352603 0.7071863000247276
 0.6457814101218216 0.7071863000247276
 0.6463957374954716 0.7071863000247276
 0.6447685761310717 0.7071863000247276
 0.6444816936187852 0.7071863000247276
 0.6473722481136301 0.7071863000247276
 0.6492767132830053 0.7071863000247276
 0.6428032659041771 0.7071863000247276
 0.6458251997584245 0.7071863000247276
 0.6448163308306578 0.7071863000247276
 0.6473456654235712 0.7071863000247276
 0.6475482452342773 0.7071863000247276
 0.651366744677886 0.7071863000247276
 0.6471146153248182 0.7071863000247276
 0.6397267223481843 0.7071863000247276
 0.64594011124043 0.7071863000247276
 0.6474311339178458 0.7071863000247276
 0.6457498866076279 0.7071863000247276
 0.6443613008438357 0.7071863000247276
 0.6464009902400367 0.7071863000247276
 0.6474311339178458 0.7071863000247276
 0.6443124809055221 0.7071863000247276
 0.6441881100180984 0.7071863000247276
 0.6473745926786341 0.7071863000247276
 0.6504408470751979 0.7071863000247276
 0.6464521392638756 0.7071863000247276
 0.6465086698659808 0.7071863000247276
 0.6474311339178458 0.7071863000247276
 0.6472731230974427 0.7071863000247276
 0.6470564844423747 0.7071863000247276
 0.5867868434597832 0.7071863000247276
 0.646068084731221 0.7071863000247276
 0.647065143822533 0.7071863000247276
 0.6460701161424277 0.7071863000247276
 0.6435828858435955 0.7071863000247276
 0.6453640480668579 0.7071863000247276
 0.6448242975675215 0.7071863000247276
 0.5870611065172919 0.6969495710289966
 0.5909551495088985 0.6994430319918328
 0.5920013953758587 0.649896893605306
 0.6475343019293354 0.6807969926170543
 0.5856765286583676 0.6964463282976887
 0.6450843882157333 0.6821649965098699
 0.589226838796556 0.670373974746767
 0.5878590973692586 0.6696212056488247
 0.6474311339178458 0.6922499433564036
 0.648909420686159 0.6721403330365749
 0.649683505666556 0.6483822605381997
 0.6454096265838731 0.6951768659072193
 0.5894447161088332 0.6570584884736925
 0.586762597631401 0.699567974631375
 0.6454526218792047 0.6692380678138599
 0.6467405195971916 0.6487008336530513
 0.6453958243550264 0.6758700821893582
 0.5871238032342603 0.6678984939215513
 0.5864817243830387 0.6874549168601125
 0.6452439652684232 0.7053962007088117
 0.6474311339178458 0.6475615196874251
 0.6460527748745617 0.6474477032616499
 0.6465524354345458 0.679423476378461
 0.6412479019840271 0.6945196354252694
 0.6471585301377647 0.6470331596977277
 0.6474311339178458 0.6906709124733676
 0.5864817243830387 0.6826752785160217
 0.6471949573423035 0.6952809112521545
 0.6464981494079411 0.6896706687265686
 0.6464976559483273 0.6852593262289473
 0.6446493002114597 0.6691323258436233
 0.6464093783797338 0.6735940196566954
 0.6492183621947194 0.6754386366184386
 0.6463310318285791 0.6889698561928914
 0.6455744971643523 0.6681717320851837
 0.6470315855387678 0.6769558140742451
 0.6483668262708486 0.6539563100289385
 0.6474311339178458 0.6930627506797602
 0.6523766562484035 0.6827978142253319
 0.6474311339178458 0.667132662019865
 0.6471369993626539 0.6710143318270319
 0.6444539389832429 0.690004933409935
 0.6453269808776051 0.6699492310574362
 0.6528219026196787 0.6915157149296716
 0.6457845707753336 0.6779351926664625
 0.6466880874402081 0.665499991446395
 0.6512434069190776 0.6723195970019791
 0.6450291688571141 0.6502490207319462
 0.6471050777548213 0.6576795166059612
 0.6474311339178458 0.6744904608182598
 0.6474207069146187 0.6756498711214745
 0.6474311339178458 0.7071863000247276
 0.6465672251960515 0.7071863000247276
 0.6474311339178458 0.7071863000247276
 0.6473273876036356 0.7071863000247276
 0.646785867121674 0.7071863000247276
 0.6479336832047138 0.7071863000247276
 0.6468038286832773 0.7071863000247276
 0.6439795942877773 0.7071863000247276
 0.6474311339178458 0.7071863000247276
 0.6426348735523446 0.7071863000247276
 0.6474311339178458 0.7071863000247276
 0.6474311339178458 0.7071863000247276
 0.6474311339178458 0.7071863000247276
 0.6474311339178458 0.7071863000247276
 0.6515769854187932 0.7071863000247276
 0.6472068600229322 0.7071863000247276
 0.6472037478189785 0.7071863000247276
 0.6474280838475304 0.7071863000247276
 0.6474311339178458 0.7071863000247276
 0.651489881407308 0.7071863000247276
 0.6461089638473753 0.7071863000247276
 0.6487322441570715 0.7071863000247276
 0.6474311339178458 0.7071863000247276
 0.6464739399926539 0.7071863000247276
 0.6470505078798863 0.7071863000247276
 0.6451358454148269 0.7071863000247276
 0.6583229616885928 0.7071863000247276
 0.6525184389890994 0.7071863000247276
 0.6472161535942186 0.7071863000247276
 0.6493720733750901 0.7071863000247276
 0.6462757858113639 0.7071863000247276
 0.6460860559313966 0.7071863000247276
 0.6470866744833774 0.7071863000247276
 0.6474311339178458 0.7071863000247276
 0.5843299590283471 0.7071863000247276
 0.6487924882301892 0.7071863000247276
 0.6474311339178458 0.7071863000247276
 0.6467646611863036 0.7071863000247276
 0.6474311339178458 0.7071863000247276
 0.6518204811895738 0.7071863000247276
 0.6467802525269071 0.7071863000247276
 0.6474311339178458 0.7071863000247276
 0.6471755548136251 0.7071863000247276
 0.6474311339178458 0.7071863000247276
 0.6474311339178458 0.7071863000247276
 0.6501738299696951 0.7071863000247276
 0.6511195599130706 0.7071863000247276
 0.6471741879663169 0.7071863000247276
 0.6474311339178458 0.7071863000247276
 0.6493541044493634 0.7071863000247276
 0.646793309942291 0.7071863000247276
 0.6473784579052735 0.7071863000247276
 0.6474147324049599 0.7071863000247276
 0.6474311339178458 0.7071863000247276
 0.6474311339178458 0.7071863000247276
 0.6515767174083391 0.7071863000247276
 0.6474311339178458 0.7071863000247276
 0.6474311339178458 0.7071863000247276
 0.6474311339178458 0.7071863000247276
 0.6463087840634856 0.7071863000247276
 0.6472757248194698 0.7071863000247276
 0.6470668167841686 0.7071863000247276
 0.6469129862391563 0.7071863000247276
 0.6448188541440018 0.7071863000247276
 0.6461632480318992 0.7071863000247276
 0.6474311339178458 0.7071863000247276
 0.6477462652236136 0.7071863000247276
 0.6472328432599368 0.7071863000247276
 0.6453871569720759 0.7071863000247276
 0.6440374512033222 0.7071863000247276
 0.6471161907319212 0.7071863000247276
 0.6485663253828942 0.7071863000247276
 0.6474311339178458 0.7071863000247276
 0.6474311339178458 0.7071863000247276
 0.6472663230350015 0.7071863000247276
 0.6474895834146028 0.7071863000247276
 0.6474311339178458 0.7071863000247276
 0.6474311339178458 0.7071863000247276
 0.6474311339178458 0.7071863000247276
 0.653454881568684 0.7071863000247276
 0.6471326631271348 0.7071863000247276
 0.6459950777009744 0.7071863000247276
 0.6462218226429137 0.7071863000247276
 0.6463961782704396 0.7071863000247276
 0.6525911161696569 0.7071863000247276
 0.6474311339178458 0.7071863000247276
 0.6508670342579532 0.7071863000247276
 0.6523237540215395 0.7071863000247276
 0.6473856399590681 0.7071863000247276
 0.6474311339178458 0.7071863000247276
 0.6474311339178458 0.7071863000247276
 0.6474311339178458 0.7071863000247276
 0.6485946292545721 0.7071863000247276
 0.6474311339178458 0.7071863000247276
 0.6498532461106348 0.7071863000247276
 0.6474311339178458 0.7071863000247276
 0.6582677191805704 0.7071863000247276
 0.6464529205272449 0.7071863000247276
 0.6470867017862103 0.7071863000247276
 0.6474311339178458 0.7071863000247276
 0.6519557971717016 0.7071863000247276
 0.6473831527679368 0.7071863000247276
 0.6495156448570737 0.7071863000247276
 0.6474311339178458 0.7071863000247276
 0.6473372452140136 0.7071863000247276
 0.6474311339178458 0.7071863000247276
 0.64439411700405 0.7071863000247276
 0.658557859054316 0.7071863000247276
 0.6541252033124878 0.7071863000247276
 0.6460628320077999 0.7071863000247276
 0.6474311339178458 0.7071863000247276
 0.6471492992800558 0.7071863000247276
 0.6462870801395666 0.7071863000247276
 0.6474311339178458 0.7071863000247276
 0.6459732944554801 0.7071863000247276
 0.6469741093117707 0.7071863000247276
 0.6461677223041796 0.7071863000247276
 0.6474068911637014 0.7071863000247276
 0.6472036867488311 0.7071863000247276
 0.649897900777795 0.7071863000247276
 0.6474311339178458 0.7071863000247276
 0.6440338915597532 0.7071863000247276
 0.6466312254667153 0.7071863000247276
 0.6465496608413341 0.7071863000247276
 0.6474311339178458 0.7071863000247276
 0.6470654724011562 0.7071863000247276
 0.6472670520750896 0.7071863000247276
 0.6437202923772857 0.7071863000247276
 0.646243921521803 0.7071863000247276
 0.6474311339178458 0.7071863000247276
 0.6465968989774233 0.7071863000247276
 0.6469804632921468 0.7071863000247276
 0.6474311339178458 0.7071863000247276
 0.6465663671090182 0.7071863000247276
 0.6443049332156436 0.7071863000247276
 0.6468580028398907 0.7071863000247276
 0.6474311339178458 0.7071863000247276
 0.6494240877294761 0.7071863000247276
 0.6474311339178458 0.7071863000247276
 0.6467764572883513 0.7071863000247276
 0.6448798137858629 0.7071863000247276
 0.6449921683967099 0.7071863000247276
 0.6471192903837351 0.7071863000247276
 0.6474311339178458 0.7071863000247276
 0.6481604290308502 0.7071863000247276
 0.646684487720786 0.7071863000247276
 0.6493620668535798 0.7071863000247276
 0.6474311339178458 0.7071863000247276
 0.6465872545561244 0.7071863000247276
 0.6437327550360814 0.7071863000247276
 0.6424681944249824 0.7071863000247276
 0.6453320472622588 0.7071863000247276
 0.6474311339178458 0.7071863000247276
 0.6474311339178458 0.7071863000247276
 0.6470616985815203 0.7071863000247276
 0.6474311339178458 0.7071863000247276
 0.6456472747521174 0.7071863000247276
 0.6474311339178458 0.7071863000247276
 0.6472462905734976 0.7071863000247276
 0.6474311339178458 0.7071863000247276
 0.6443902601670077 0.7071863000247276
 0.6537699534506034 0.7071863000247276
 0.6473877197848664 0.7071863000247276
 0.6474311339178458 0.7071863000247276
 0.6418841810629654 0.7071863000247276
 0.6474311339178458 0.7071863000247276
 0.6462513090798994 0.7071863000247276
 0.6474311339178458 0.7071863000247276
 0.6467627013033297 0.7071863000247276
 0.6472027562364564 0.7071863000247276
 0.6455199325460089 0.7071863000247276
 0.6420807342950183 0.7071863000247276
 0.6491795366659043 0.7071863000247276
 0.6474311339178458 0.7071863000247276
 0.6468989917531666 0.7071863000247276
 0.6470160595393457 0.7071863000247276
 0.6518887754087899 0.7071863000247276
 0.6456951703977007 0.7071863000247276
 0.6459933861599396 0.7071863000247276
 0.6468135198138485 0.7071863000247276
 0.6536636996939289 0.7071863000247276
 0.6481090031050551 0.7071863000247276
 0.6471450602997304 0.7071863000247276
 0.6465917910836225 0.7071863000247276
 0.6466777258017627 0.7071863000247276
 0.6474311339178458 0.7071863000247276
 0.6474311339178458 0.7071863000247276
 0.6474088409829428 0.7071863000247276
 0.6465762798269474 0.7071863000247276
 0.6474311339178458 0.7071863000247276
 0.6456629069873689 0.7071863000247276
 0.6499559982773564 0.7071863000247276
 0.6474311339178458 0.7071863000247276
 0.6465977965506597 0.7071863000247276
 0.6474311339178458 0.7071863000247276
 0.6474311339178458 0.7071863000247276
 0.6450582347697456 0.7071863000247276
 0.5850613560496034 0.7071863000247276
 0.6494500951982247 0.7071863000247276
 0.5784432411786061 0.7071863000247276
 0.6448659788861693 0.7071863000247276
 0.5792527872429731 0.7071863000247276
 0.579460789294914 0.7071863000247276
 0.5864237393013418 0.7071863000247276
 0.5786392874046156 0.7071863000247276
 0.577453123274561 0.7071863000247276
 0.6464460719027749 0.7071863000247276
 0.5786392874046156 0.7071863000247276
 0.6474311339178458 0.7071863000247276
 0.6455236665407329 0.7071863000247276
 0.5778585656902855 0.7071863000247276
 0.5791747592823995 0.7071863000247276
 0.6469040879819625 0.7071863000247276
 0.6439745754139796 0.7071863000247276
 0.5803117801198618 0.7071863000247276
 0.6514604493035441 0.7071863000247276
 0.5821372598860703 0.7071863000247276
 0.5910615047179375 0.7071863000247276
 0.586248393917477 0.7071863000247276
 0.6455374721693108 0.7071863000247276
 0.6463386725974365 0.7071863000247276
 0.5911946883109882 0.7071863000247276
 0.6448831843348877 0.7071863000247276
 0.6465410722778546 0.7071863000247276
 0.6466017838110694 0.7071863000247276
 0.6463852005212698 0.7071863000247276
 0.5855071948800274 0.7071863000247276
 0.578634158285201 0.7071863000247276
 0.6452855177627592 0.7071863000247276
 0.5879976543927501 0.7071863000247276
 0.6459883892628902 0.7071863000247276
 0.6462702967887294 0.7071863000247276
 0.5791185109083916 0.7071863000247276
 0.6460150397998327 0.7071863000247276
 0.6460127245784018 0.7071863000247276
 0.6486857662800497 0.7071863000247276
 0.6455815848356815 0.7071863000247276
 0.6451999505037651 0.7071863000247276
 0.6482295831737364 0.7071863000247276
 0.6474311339178458 0.7071863000247276
 0.645773579332162 0.7071863000247276
 0.6467504918415103 0.7071863000247276
 0.6464384565313359 0.7071863000247276
 0.6473075398866714 0.7071863000247276
 0.6463927190464687 0.7071863000247276
 0.6474311339178458 0.7071863000247276
 0.6474311339178458 0.7071863000247276
 0.6474311339178458 0.7071863000247276
 0.6435584464638529 0.7071863000247276
 0.6473685933746216 0.7071863000247276
 0.6470283127153461 0.7071863000247276
 0.6470832894693161 0.7071863000247276
 0.6510546004112465 0.7071863000247276
 0.6430414195674379 0.7071863000247276
 0.6428294301747499 0.7071863000247276
 0.6459963346097719 0.7071863000247276
 0.644601175381222 0.7071863000247276
 0.6474311339178458 0.7071863000247276
 0.6456419345336779 0.7071863000247276
 0.6470385090116678 0.7071863000247276
 0.6451637488023314 0.7071863000247276
 0.6444281451587943 0.7071863000247276
 0.6447026238517256 0.7071863000247276
 0.6473136519146248 0.7071863000247276
 0.6426947867916846 0.7071863000247276
 0.6450664197461874 0.7071863000247276
 0.647373822225787 0.7071863000247276
 0.646640839516913 0.7071863000247276
 0.6437327968625128 0.7071863000247276
 0.6474311339178458 0.7071863000247276
 0.6469038564790588 0.7071863000247276
 0.6474311339178458 0.7071863000247276
 0.6474311339178458 0.7071863000247276
 0.6471662824450021 0.7071863000247276
 0.6462206093886307 0.7071863000247276
 0.6464775519355233 0.7071863000247276
 0.6463211208621333 0.7071863000247276
 0.6487809028457237 0.7071863000247276
 0.64592437227477 0.7071863000247276
 0.6466269965316794 0.7071863000247276
 0.6464746003188846 0.7071863000247276
 0.6451010825470684 0.7071863000247276
 0.6469291966687862 0.7071863000247276
 0.6468508729252647 0.7071863000247276
 0.6444237843473064 0.7071863000247276
 0.6468011479895693 0.7071863000247276
 0.6474311339178458 0.7071863000247276
 0.6457597384538352 0.7071863000247276
 0.6461741319489015 0.7071863000247276
 0.6463661686820182 0.7071863000247276
 0.6479935953175558 0.7071863000247276
 0.6503528831092042 0.7071863000247276
 0.6474311339178458 0.7071863000247276
 0.6462167374117364 0.7071863000247276
 0.6521557636186277 0.7071863000247276
 0.6592274537612376 0.7071863000247276
 0.6434928421029713 0.7071863000247276
 0.6474311339178458 0.7071863000247276
 0.6404339654877486 0.7071863000247276
 0.6521561710247124 0.7071863000247276
 0.6474311339178458 0.7071863000247276
 0.6473104649386852 0.7071863000247276
 0.6468156180580148 0.7071863000247276
 0.6474311339178458 0.7071863000247276
 0.6446487427287686 0.7071863000247276
 0.6460228829994278 0.7071863000247276
 0.6465847507737337 0.7071863000247276
 0.6474311339178458 0.7071863000247276
 0.6466333493066567 0.7071863000247276
 0.6481332307243228 0.7071863000247276
 0.6473270285480415 0.7071863000247276
 0.6445595997884876 0.7071863000247276
 0.647216317002032 0.7071863000247276
 0.6474311339178458 0.7071863000247276
 0.6472480735158745 0.7071863000247276
 0.6472480749283815 0.7071863000247276
 0.6474311339178458 0.7071863000247276
 0.6430602530910636 0.7071863000247276
 0.6446841243531479 0.7071863000247276
 0.6474311339178458 0.7071863000247276
 0.6452177887167159 0.7071863000247276
 0.6472871060656118 0.7071863000247276
 0.6451382738478917 0.7071863000247276
 0.6474311339178458 0.7071863000247276
 0.6454527154183594 0.7071863000247276
 0.6455550745037003 0.7071863000247276
 0.6474311339178458 0.7071863000247276
 0.646181753848696 0.7071863000247276
 0.6474001224903964 0.7071863000247276
 0.6458605053564325 0.7071863000247276
 0.6470959864006869 0.7071863000247276
 0.6468588131563564 0.7071863000247276
 0.6474311339178458 0.7071863000247276
 0.5786392874046156 0.7071863000247276
 0.6463813092761446 0.7071863000247276
 0.6463251772731369 0.7071863000247276
 0.6474311339178458 0.7071863000247276
 0.6474311339178458 0.7071863000247276
 0.6474311339178458 0.7071863000247276
 0.6471462402901149 0.7071863000247276
 0.6464157237218977 0.7071863000247276
 0.6454065592768352 0.7071863000247276
 0.652045044219753 0.7071863000247276
 0.6467796053623501 0.7071863000247276
 0.6462490275805657 0.7071863000247276
 0.6474311339178458 0.7071863000247276
 0.6477514088488372 0.7071863000247276
 0.6474311339178458 0.7071863000247276
 0.6417483230592469 0.7071863000247276
 0.6527639038719683 0.7071863000247276
 0.6436523491405262 0.7071863000247276
 0.6474311339178458 0.7071863000247276
 0.6465403568924595 0.7071863000247276
 0.6503566713817563 0.7071863000247276
 0.6473877811110718 0.7071863000247276
 0.6471226090062319 0.7071863000247276
 0.6462016764230794 0.7071863000247276
 0.6457166228411166 0.7071863000247276
 0.6466194365968692 0.7071863000247276
 0.6465980283076889 0.7071863000247276
 0.6498403212468367 0.7071863000247276
 0.6449392469698627 0.7071863000247276
 0.6481038545395288 0.7071863000247276
 0.6471076357653887 0.7071863000247276
 0.6434629426140994 0.7071863000247276
 0.6427219447355728 0.7071863000247276
 0.6474311339178458 0.7071863000247276
 0.6474311339178458 0.7071863000247276
 0.6503132537316061 0.7071863000247276
 0.6473034080432409 0.7071863000247276
 0.6474311339178458 0.7071863000247276
 0.6461444517763515 0.7071863000247276
 0.6462799583588004 0.7071863000247276
 0.6549760190372684 0.7071863000247276
 0.6474311339178458 0.7071863000247276
 0.6465321283775083 0.7071863000247276
 0.6474311339178458 0.7071863000247276
 0.6470965945821328 0.7071863000247276
 0.6474311339178458 0.7071863000247276
 0.6459331609354704 0.7071863000247276
 0.6458375822122115 0.7071863000247276
 0.644159343410398 0.7071863000247276
 0.6494841610551809 0.7071863000247276
 0.645196533090874 0.7071863000247276
 0.6454944437931134 0.7071863000247276
 0.6478596252852029 0.7071863000247276
 0.6478792064015113 0.7071863000247276
 0.6445295733528156 0.7071863000247276
 0.6468977887299523 0.7071863000247276
 0.6465690998758116 0.7071863000247276
 0.6474311339178458 0.7071863000247276
 0.6450634443148093 0.7071863000247276
 0.6465444225734969 0.7071863000247276
 0.6469704336188082 0.7071863000247276
 0.6444038227905912 0.7071863000247276
 0.646623967142504 0.7071863000247276
 0.6459546406720461 0.7071863000247276
 0.6470815309488442 0.7071863000247276
 0.6468861768065788 0.7071863000247276
 0.6463020900187624 0.7071863000247276
 0.6447839971588001 0.7071863000247276
 0.6469561288656829 0.7071863000247276
 0.6445460556872212 0.7071863000247276
 0.5794121399999028 0.7071863000247276
 0.6439967621683065 0.7071863000247276
 0.6472651109921068 0.7071863000247276
 0.6468830701128347 0.7071863000247276
 0.647266521106145 0.7071863000247276
 0.6446656969867943 0.7071863000247276
 0.6471628926483026 0.7071863000247276
 0.646626209046828 0.7071863000247276
 0.6470952325131714 0.7071863000247276
 0.6486912000592298 0.7071863000247276
 0.706446361787 0.7071863000247276
 0.6560949715525102 0.7071863000247276
 0.6502251548839497 0.7071863000247276
 0.7057949642129993 0.7071863000247276
 0.7060124532553369 0.7071863000247276
 0.6486361833849634 0.7071863000247276
 0.6467453455546048 0.7071863000247276
 0.6889678338858558 0.7071863000247276
 0.7013711957561852 0.7071863000247276
 0.7053000015466102 0.7071863000247276
 0.6474311339178458 0.7071863000247276
 0.7050807903630543 0.7071863000247276
 0.6516538873840884 0.7071863000247276
 0.646124545262436 0.7071863000247276
 0.6512208393753918 0.7071863000247276
 0.704580169106154 0.7071863000247276
 0.704137020877655 0.7071863000247276
 0.6950905896667847 0.7071863000247276
 0.6472666687551154 0.7071863000247276
 0.6446016898192513 0.7071863000247276
 0.6581179043158949 0.7071863000247276
 0.6994733204107093 0.7071863000247276
 0.6553299430172252 0.7071863000247276
 0.6487016037800165 0.7071863000247276
 0.6577947306579364 0.7071863000247276
 0.7036304568820209 0.7071863000247276
 0.646689399688833 0.7071863000247276
 0.6957774565903645 0.7071863000247276
 0.6531168175474935 0.7071863000247276
 0.6472073907780256 0.7071863000247276
 0.7060300215982205 0.7071863000247276
 0.7061124691309866 0.7071863000247276
 0.7065637603253172 0.7071863000247276
 0.7037806464474554 0.7071863000247276
 0.7071863000247276 0.7071863000247276
 0.7071863000247276 0.7071863000247276
 0.70371971207122 0.7071863000247276
 0.7070043369738537 0.7071863000247276
 0.6919099454921687 0.7071863000247276
 0.7063031281832011 0.7071863000247276
 0.7071204389232062 0.7071863000247276
 0.7070126321200434 0.7071863000247276
 0.7071863000247276 0.7071863000247276
 0.7062897192903874 0.7071863000247276
 0.706656922656983 0.7071863000247276
 0.7071863000247276 0.7071863000247276
 0.7069057979699465 0.7071863000247276
 0.7061728883854873 0.7071863000247276
 0.7071863000247276 0.7071863000247276
 0.7071863000247276 0.7071863000247276
 0.7066490338996338 0.7071863000247276
 0.7054140022582194 0.7071863000247276
 0.706421086247603 0.7071863000247276
 0.7053975108349233 0.7071863000247276
 0.7061719742404137 0.7071863000247276
 0.7006064852923892 0.7071863000247276
 0.7060967069377637 0.7071863000247276
 0.7030552662626883 0.7071863000247276
 0.7059589102884838 0.7071863000247276
 0.7052541220356234 0.7071863000247276
 0.7065189367067795 0.7071863000247276
 0.7065524094479905 0.7071863000247276
 0.7031089035260214 0.7071863000247276
 0.7057005976496 0.7071863000247276
 0.7071863000247276 0.7071863000247276
 0.7008758218016837 0.7071863000247276
 0.7061734888371656 0.7071863000247276
 0.7021911636873654 0.7071863000247276
 0.7040691226288014 0.7071863000247276
 0.6973159230147008 0.7071863000247276
 0.7071863000247276 0.7071863000247276
 0.7057259646186342 0.7071863000247276
 0.7049531129646283 0.7071863000247276
 0.7070690399540505 0.7071863000247276
 0.7069282881818006 0.7071863000247276
 0.7042958661537738 0.7071863000247276
 0.7060421039118581 0.7071863000247276
 0.7064540316435619 0.7071863000247276
 0.7071863000247276 0.7071863000247276
 0.7043125009114453 0.7071863000247276
 0.705521959819349 0.7071863000247276
 0.706912295577123 0.7071863000247276
 0.703053428416371 0.7071863000247276
 0.7070291665830262 0.7071863000247276
 0.7059019834913243 0.7071863000247276
 0.7071863000247276 0.7071863000247276
 0.7006650564135004 0.7071863000247276
 0.7029696742553184 0.7071863000247276
 0.7051063053789208 0.7071863000247276
 0.7071407828937757 0.7071863000247276
 0.7067104418636529 0.7071863000247276
 0.7069367215048064 0.7071863000247276
 0.7062055272632868 0.7071863000247276
 0.7045741415070981 0.7071863000247276
 0.7071836683780182 0.7071863000247276
 0.7052204276819953 0.7071863000247276
 0.7032354559800953 0.7071863000247276
 0.7071863000247276 0.7071863000247276
 0.7065364611891358 0.7071863000247276
 0.7043856096421071 0.7071863000247276
 0.7042779079676942 0.7071863000247276
 0.7070782258086206 0.7071863000247276
 0.7071188386008014 0.7071863000247276
 0.7062761238055628 0.7071863000247276
 0.7058934816346036 0.7071863000247276
 0.7056243549280761 0.7071863000247276
 0.7070085887548505 0.7071863000247276
 0.7024570488138588 0.7071863000247276
 0.705777012715047 0.7071863000247276
 0.7044070200271371 0.7071863000247276
 0.705724848669002 0.7071863000247276
 0.702340988568825 0.7071863000247276
 0.7061616932175496 0.7071863000247276
 0.7071863000247276 0.7071863000247276
 0.7059639804289723 0.7071863000247276
 0.7071863000247276 0.7071863000247276
 0.7056820618531761 0.7071863000247276
 0.7066302556932151 0.7071863000247276
 0.706737081975525 0.7071863000247276
 0.7071863000247276 0.7071863000247276
 0.7062193610272478 0.7071863000247276
 0.7071863000247276 0.7071863000247276
 0.7063483622440094 0.7071863000247276
 0.705597186898147 0.7071863000247276
 0.7071863000247276 0.7071863000247276
 0.7071863000247276 0.7071863000247276
 0.704178805196357 0.7071863000247276
 0.7068865926936565 0.7071863000247276
 0.7071863000247276 0.7071863000247276
 0.7071863000247276 0.7071863000247276
 0.7035582769994573 0.7071863000247276
 0.7059752787264755 0.7071863000247276
 0.7067842991306119 0.7071863000247276
 0.7011669929373197 0.7071863000247276