# Created by Octave 4.0.0, Mon May 14 11:07:25 2018 CEST <olethros@olethros-OptiPlex-9010>
# name: results
# type: struct
# ndims: 2
 1 5
# length: 8
# name: options
# type: cell
# rows: 1
# columns: 5
# name: <cell-element>
# type: scalar struct
# ndims: 2
 1 1
# length: 8
# name: A
# type: scalar
2


# name: X
# type: scalar
8


# name: Y
# type: scalar
2


# name: Z
# type: scalar
2


# name: lambda
# type: scalar
0


# name: n_iter
# type: scalar
10000


# name: horizon
# type: scalar
1000


# name: n_samples
# type: scalar
16





# name: <cell-element>
# type: scalar struct
# ndims: 2
 1 1
# length: 8
# name: A
# type: scalar
2


# name: X
# type: scalar
8


# name: Y
# type: scalar
2


# name: Z
# type: scalar
2


# name: lambda
# type: scalar
0.25


# name: n_iter
# type: scalar
10000


# name: horizon
# type: scalar
1000


# name: n_samples
# type: scalar
16





# name: <cell-element>
# type: scalar struct
# ndims: 2
 1 1
# length: 8
# name: A
# type: scalar
2


# name: X
# type: scalar
8


# name: Y
# type: scalar
2


# name: Z
# type: scalar
2


# name: lambda
# type: scalar
0.5


# name: n_iter
# type: scalar
10000


# name: horizon
# type: scalar
1000


# name: n_samples
# type: scalar
16





# name: <cell-element>
# type: scalar struct
# ndims: 2
 1 1
# length: 8
# name: A
# type: scalar
2


# name: X
# type: scalar
8


# name: Y
# type: scalar
2


# name: Z
# type: scalar
2


# name: lambda
# type: scalar
0.75


# name: n_iter
# type: scalar
10000


# name: horizon
# type: scalar
1000


# name: n_samples
# type: scalar
16





# name: <cell-element>
# type: scalar struct
# ndims: 2
 1 1
# length: 8
# name: A
# type: scalar
2


# name: X
# type: scalar
8


# name: Y
# type: scalar
2


# name: Z
# type: scalar
2


# name: lambda
# type: scalar
1


# name: n_iter
# type: scalar
10000


# name: horizon
# type: scalar
1000


# name: n_samples
# type: scalar
16







# name: PU
# type: cell
# rows: 1
# columns: 5
# name: <cell-element>
# type: matrix
# rows: 1000
# columns: 2
 0.6336798098562264 0.5104211800571138
 0.4634238215461237 0.5104211800571138
 0.5383267916028236 0.5104211800571138
 0.5073725002118717 0.5104211800571138
 0.5441193156517254 0.5521292618299581
 0.4921113660211121 0.5462853247896171
 0.6030224973321769 0.5536597644732526
 0.4871565191649361 0.4948412083912253
 0.5330135081198272 0.4806613317304499
 0.5815180785396904 0.5592398993665013
 0.5576095460929197 0.4955744696356179
 0.48996462247965 0.4749908324369903
 0.5594780186575765 0.5561763733454812
 0.6202282097149812 0.5437120856252611
 0.6304531368691935 0.5574879912970799
 0.6238713498165309 0.5678493441614407
 0.5631781511967361 0.5977343496459319
 0.57718495329388 0.5734909105843955
 0.6193742571724148 0.5389169290212951
 0.5864232135852523 0.6039478538459098
 0.5630164033477728 0.5689711623039982
 0.5788065844171665 0.5741554062268331
 0.5888725580240077 0.5491487318684806
 0.6217722910801077 0.6170740664735112
 0.5872147103991059 0.545290152410193
 0.5650764520516907 0.5945826999744682
 0.623004684359076 0.5905404012027281
 0.6284046642316339 0.6345162446486974
 0.6246114579628892 0.6286278064007313
 0.5766173876617636 0.6296506640939831
 0.6199923932545132 0.6290797933519744
 0.5653896933362457 0.6245869669590894
 0.5581002669052076 0.6262240569383167
 0.5664002528092535 0.6223630600870096
 0.5570167078703395 0.626518909002724
 0.5631781511967361 0.6247527350480198
 0.5774105379107974 0.624423589289096
 0.5806583676976543 0.6231880307089114
 0.5716242691999164 0.6245653693855667
 0.5776902307365335 0.6246087091303175
 0.5683801784763355 0.6221935514890697
 0.5712381828461416 0.6253613585019364
 0.5686326819776276 0.6241179124619741
 0.5728757568986074 0.6250342636888335
 0.5824540603282637 0.6221248513244091
 0.5769930748500377 0.6239923682984492
 0.559637866373444 0.6217722868418403
 0.5797592948884485 0.6256620488202301
 0.5700309135885264 0.6248229579295029
 0.5682879575769826 0.6264742741195152
 0.5814853099823941 0.6218954889126076
 0.5822464320632561 0.6240395835004937
 0.5819120277022862 0.6217722868418403
 0.5798913316144233 0.6217722868418403
 0.5784958699252575 0.6217722868418403
 0.5832394328344622 0.6217722868418403
 0.5769755245876371 0.6217722868418403
 0.5766675848594252 0.6217722868418403
 0.5773509099248763 0.6217722868418403
 0.5777611218768709 0.6217722868418403
 0.5770117755376536 0.6217722868418403
 0.5770182667378273 0.6217722868418403
 0.5769959110168779 0.6217722868418403
 0.5770335023506129 0.6217722868418403
 0.5771517156097052 0.6217722868418403
 0.5774339687719168 0.6217722868418403
 0.5769972729405394 0.6217722868418403
 0.575712114813238 0.6217722868418403
 0.5745387521877688 0.6217722868418403
 0.5758281397372851 0.6217722868418403
 0.583176336517399 0.6217722868418403
 0.5768479964208558 0.6217722868418403
 0.581191151035565 0.6217722868418403
 0.5772965557817566 0.6217722868418403
 0.5822965998872084 0.6217722868418403
 0.5753342472950791 0.6217722868418403
 0.5739512147513436 0.6217722868418403
 0.5814418370732215 0.6217722868418403
 0.5801836001566181 0.6217722868418403
 0.5840313762327621 0.6217722868418403
 0.5765779622756012 0.6217722868418403
 0.5812311207484813 0.6217722868418403
 0.5810914655213462 0.6217722868418403
 0.5834249307021914 0.6217722868418403
 0.5823390921102872 0.6217722868418403
 0.5812828534540051 0.6217722868418403
 0.5822070295289723 0.6217722868418403
 0.576196179595455 0.6217722868418403
 0.571230537369338 0.6217722868418403
 0.5791717666815155 0.6217722868418403
 0.6159672601831931 0.6217722868418403
 0.5795075210529983 0.6217722868418403
 0.5818512708050223 0.6217722868418403
 0.5846428280382164 0.6217722868418403
 0.582279894808567 0.6217722868418403
 0.6221758811706428 0.6217722868418403
 0.5808627012294284 0.6217722868418403
 0.5847904267393741 0.6217722868418403
 0.6245227005536106 0.6217722868418403
 0.5821187113599841 0.6217722868418403
 0.6224093510583979 0.6217722868418403
 0.622360453968577 0.6217722868418403
 0.5786698895541577 0.6217722868418403
 0.6261928124687913 0.6217722868418403
 0.6260139576532446 0.6217722868418403
 0.578722363339758 0.6268100617664639
 0.6235701799390176 0.6246099099286921
 0.5755438942789767 0.6228385079292657
 0.6241263576793311 0.6241122197824106
 0.5842272212486098 0.6242220760270335
 0.6257240250721799 0.6268820932220868
 0.5847211776114446 0.6268820932220868
 0.6093056298110715 0.6268820932220868
 0.5786774376208214 0.6268820932220868
 0.6204233623281763 0.6268820932220868
 0.5814211143486434 0.6268820932220868
 0.5802669771473984 0.6268820932220868
 0.5815227539936068 0.6268820932220868
 0.5826126364995307 0.6268820932220868
 0.5834908535334342 0.6268820932220868
 0.5749903554162283 0.6268820932220868
 0.5819557129794639 0.6268820932220868
 0.57948255286327 0.6268820932220868
 0.5771966243169057 0.6268820932220868
 0.5789751710547651 0.6268820932220868
 0.6223405167812035 0.6268820932220868
 0.5802362039912196 0.6268820932220868
 0.5796424499280045 0.6268820932220868
 0.5812967699737739 0.6268820932220868
 0.5818583499315316 0.6268820932220868
 0.5788185803161261 0.6268820932220868
 0.5817318183391847 0.6268820932220868
 0.5819281157804014 0.6268820932220868
 0.5818290309015022 0.6268820932220868
 0.5819281157804014 0.6268820932220868
 0.5734735793160581 0.6268820932220868
 0.5820151805617276 0.6268820932220868
 0.5833562645011434 0.6268820932220868
 0.5768390226937937 0.6268820932220868
 0.5819239406168191 0.6268820932220868
 0.5712608499340633 0.6268820932220868
 0.577564460937507 0.6268820932220868
 0.5807324156201756 0.6268820932220868
 0.5731272254566787 0.6268820932220868
 0.5831776161884893 0.6268820932220868
 0.5814339537059607 0.6268820932220868
 0.5805984403711588 0.6268820932220868
 0.5806009870822315 0.6268820932220868
 0.5782869733409807 0.6268820932220868
 0.5792768180276308 0.6268820932220868
 0.5801113544471003 0.6268820932220868
 0.5819281157804014 0.6268820932220868
 0.5814331218700958 0.6268820932220868
 0.5778583302205305 0.6268820932220868
 0.5749254533316341 0.6268820932220868
 0.5804714347918292 0.6268820932220868
 0.5806878891567696 0.6268820932220868
 0.5787032656070736 0.6268820932220868
 0.5804997231770541 0.6268820932220868
 0.5818557731629729 0.6268820932220868
 0.5742589022864301 0.6268820932220868
 0.5806774388636448 0.6268820932220868
 0.581393585325757 0.6268820932220868
 0.5838631208704189 0.6268820932220868
 0.5733978840386449 0.6268820932220868
 0.5782423681443588 0.6268820932220868
 0.5820096902650317 0.6268820932220868
 0.5735857237622287 0.6268820932220868
 0.5819223748902239 0.6268820932220868
 0.5777186860757496 0.6268820932220868
 0.5773570096245341 0.6268820932220868
 0.5783432957709108 0.6268820932220868
 0.582146270858047 0.6268820932220868
 0.5818496986787155 0.6268820932220868
 0.5821626418783349 0.6268820932220868
 0.5818252358042363 0.6268820932220868
 0.5819254659548981 0.6268820932220868
 0.5818941218553476 0.6268820932220868
 0.5807703834773377 0.6268820932220868
 0.5773087098759271 0.6268820932220868
 0.5819281157804014 0.6268820932220868
 0.5801746421581392 0.6268820932220868
 0.5744089343088178 0.6268820932220868
 0.5806453086653947 0.6268820932220868
 0.5795999739649632 0.6268820932220868
 0.5818257315618798 0.6268820932220868
 0.5802631377855439 0.6268820932220868
 0.5802659924086815 0.6268820932220868
 0.5826518630748736 0.6268820932220868
 0.5825654071111213 0.6268820932220868
 0.5819281157804014 0.6268820932220868
 0.5827485035168307 0.6268820932220868
 0.581850175226911 0.6268820932220868
 0.5820404403228645 0.6268820932220868
 0.5819032988668869 0.6268820932220868
 0.5793261536416715 0.6268820932220868
 0.5781013673385667 0.6268820932220868
 0.5810734741253319 0.6268820932220868
 0.5815191622850752 0.6268820932220868
 0.5758260957804494 0.6268820932220868
 0.5823764297331785 0.6268820932220868
 0.582425856918926 0.6268820932220868
 0.5823226290000502 0.6268820932220868
 0.5818809753120522 0.6268820932220868
 0.5819025829221913 0.6268820932220868
 0.5787076109215262 0.6268820932220868
 0.579268656733861 0.6268820932220868
 0.5770708203336978 0.6268820932220868
 0.5811069108920174 0.6268820932220868
 0.6248212075566369 0.6268820932220868
 0.5818716079992474 0.6268820932220868
 0.5839827651317854 0.6268820932220868
 0.5835028857102234 0.6268820932220868
 0.5828906943293922 0.6268820932220868
 0.5825675405701791 0.6268820932220868
 0.6260909296315572 0.6268820932220868
 0.5769930319090912 0.6268820932220868
 0.5815012653464793 0.6268820932220868
 0.58194940391617 0.6268820932220868
 0.6268588582864646 0.6268820932220868
 0.581859098326701 0.6268820932220868
 0.5754183038739245 0.6268820932220868
 0.5820040261589203 0.6268820932220868
 0.5797257951322686 0.6268820932220868
 0.5752784760975664 0.6268820932220868
 0.5763294222429556 0.6268820932220868
 0.5829397987317502 0.6268820932220868
 0.5752056917297581 0.6268820932220868
 0.5767198209315366 0.6268820932220868
 0.6210395697891299 0.6268820932220868
 0.5806864687927525 0.6268820932220868
 0.584830029611984 0.6268820932220868
 0.573148769463957 0.6268820932220868
 0.5731321673636046 0.6268820932220868
 0.5675437850666887 0.6268820932220868
 0.6217722868418403 0.6268820932220868
 0.5821378112249984 0.6268820932220868
 0.577372067802987 0.6268820932220868
 0.5829301393764846 0.6268820932220868
 0.6106633519726761 0.6268820932220868
 0.6201558752854551 0.6268820932220868
 0.6205092556480213 0.6268820932220868
 0.6242564430946566 0.6268820932220868
 0.6180968996162074 0.6268820932220868
 0.5819281157804014 0.6268820932220868
 0.6201884303515578 0.6268820932220868
 0.571565495207782 0.6268820932220868
 0.5730841507736435 0.6268820932220868
 0.6261390495413623 0.6268820932220868
 0.6268809510039691 0.6268820932220868
 0.6240642792951417 0.6268820932220868
 0.6258096722637018 0.6268820932220868
 0.5772831449699432 0.6268820932220868
 0.6205692255500267 0.6268820932220868
 0.5839155477707484 0.6268820932220868
 0.625865896101969 0.6268820932220868
 0.5819324824758608 0.6268820932220868
 0.6102988277083381 0.6268820932220868
 0.5824097572462892 0.6268820932220868
 0.6251296235092713 0.6268820932220868
 0.5822482546226433 0.6268820932220868
 0.619380258390173 0.6268820932220868
 0.5831401944936562 0.6268820932220868
 0.5770918453686653 0.6268820932220868
 0.6222912615764751 0.6268820932220868
 0.5773168651764788 0.6268820932220868
 0.5809940250470226 0.6268820932220868
 0.5824530615993149 0.6268820932220868
 0.6261724663822646 0.6268820932220868
 0.6250990149281975 0.6268820932220868
 0.5822585684987269 0.6268820932220868
 0.5807370789290454 0.6268820932220868
 0.582843723794769 0.6268820932220868
 0.6227242289105017 0.6268820932220868
 0.6264707981592833 0.6268820932220868
 0.5836025099259352 0.6268820932220868
 0.624679304822168 0.6268820932220868
 0.6269215301682137 0.6268820932220868
 0.5832782250141796 0.6268820932220868
 0.5820997401027109 0.6268820932220868
 0.6202512086933756 0.6268820932220868
 0.6268820932220868 0.6268820932220868
 0.5796598802022223 0.6268820932220868
 0.6268860301558768 0.6268820932220868
 0.6252342948759866 0.6268820932220868
 0.6227667778118063 0.6268820932220868
 0.6240141575195418 0.6268820932220868
 0.6193005142447829 0.6268820932220868
 0.6259988732362549 0.6268820932220868
 0.6257489128620574 0.6268820932220868
 0.6256622303642335 0.6268820932220868
 0.6257599843185003 0.6268820932220868
 0.6269577274899295 0.6268820932220868
 0.6268820932220868 0.6268820932220868
 0.6136161523709697 0.6268820932220868
 0.6255063640843102 0.6268820932220868
 0.6268177539640815 0.6268820932220868
 0.6266963605009369 0.6268820932220868
 0.6256901990533025 0.6268820932220868
 0.6261267354070484 0.6268820932220868
 0.5814861595554411 0.6268820932220868
 0.5817225521132409 0.6268820932220868
 0.6253087091599321 0.6268820932220868
 0.6268820932220868 0.6268820932220868
 0.6269553230063901 0.6268820932220868
 0.6270896195797727 0.6268820932220868
 0.6268804860815735 0.6268820932220868
 0.6251475217118309 0.6268820932220868
 0.6213595356415154 0.6268820932220868
 0.6267989663146923 0.6268820932220868
 0.6151132788927081 0.6268820932220868
 0.5813576772954989 0.6268820932220868
 0.6262638916166938 0.6268820932220868
 0.6120173604513263 0.6268820932220868
 0.6257923104813709 0.6268820932220868
 0.5824307199106009 0.6268820932220868
 0.5819281157804014 0.6268820932220868
 0.6277609334550863 0.6268820932220868
 0.6243475361360565 0.6268820932220868
 0.6268820932220868 0.6268820932220868
 0.6258891219188943 0.6268820932220868
 0.5818193463930654 0.6268820932220868
 0.6250992949353581 0.6268820932220868
 0.6267820215087843 0.6268820932220868
 0.6261802556865221 0.6268820932220868
 0.6259422989791543 0.6268820932220868
 0.6112850083922966 0.6268820932220868
 0.5814620732952235 0.6268820932220868
 0.6268552628407875 0.6268820932220868
 0.6257046926031758 0.6268820932220868
 0.6232864066611807 0.6268820932220868
 0.6263290651716383 0.6268820932220868
 0.6232952537175146 0.6268820932220868
 0.6219001861529148 0.6268820932220868
 0.6249904624663115 0.6268820932220868
 0.5823079816783373 0.6268820932220868
 0.6256083588261293 0.6268820932220868
 0.6267932790081557 0.6268820932220868
 0.6247500449257901 0.6268820932220868
 0.6265683952986817 0.6268820932220868
 0.6267388565597237 0.6268820932220868
 0.5816224541400962 0.6268820932220868
 0.626934302279673 0.6268820932220868
 0.6259820740576234 0.6268820932220868
 0.6255966655823358 0.6268820932220868
 0.6269124921160791 0.6268820932220868
 0.6271211961857487 0.6268820932220868
 0.579738678195184 0.6268820932220868
 0.6267625194938035 0.6268820932220868
 0.6219989154825393 0.6268820932220868
 0.6252310960416673 0.6268820932220868
 0.6278247642143083 0.6268820932220868
 0.6268024373591387 0.6268820932220868
 0.626835618217031 0.6268820932220868
 0.6251820626198497 0.6268820932220868
 0.6259672213317836 0.6268820932220868
 0.6262648792683998 0.6268820932220868
 0.6246546651563845 0.6268820932220868
 0.6236239997274452 0.6268820932220868
 0.5777454039119245 0.6268820932220868
 0.6194675993032116 0.6268820932220868
 0.6239334277510947 0.6268820932220868
 0.6269367330971368 0.6268820932220868
 0.6267809445525719 0.6268820932220868
 0.6236488824651645 0.6268820932220868
 0.6267655542474548 0.6268820932220868
 0.625976784452862 0.6268820932220868
 0.6223843602832126 0.6268820932220868
 0.6335421835420484 0.6268820932220868
 0.6267392339767128 0.6268820932220868
 0.619450048148633 0.6268820932220868
 0.6265917310108478 0.6268820932220868
 0.6268820932220868 0.6268820932220868
 0.6268970576551642 0.6268820932220868
 0.5813749734350672 0.6268820932220868
 0.6264345382112958 0.6268820932220868
 0.625342791851864 0.6268820932220868
 0.6253145672797531 0.6268820932220868
 0.6222561440588338 0.6268820932220868
 0.6264367398779899 0.6268820932220868
 0.6275433792227211 0.6268820932220868
 0.6201538771418131 0.6268820932220868
 0.6267925309498589 0.6268820932220868
 0.6264031883804938 0.6268820932220868
 0.6262618545773121 0.6268820932220868
 0.6261066139692933 0.6268820932220868
 0.6266786774844718 0.6268820932220868
 0.6218780944002663 0.6268820932220868
 0.6268272187438853 0.6268820932220868
 0.6268977794719722 0.6268820932220868
 0.5769203109047842 0.6268820932220868
 0.6215416741453005 0.6268820932220868
 0.6266221236077326 0.6268820932220868
 0.6267291471040372 0.6268820932220868
 0.6265465806644317 0.6268820932220868
 0.6253749017847908 0.6268820932220868
 0.5830073603821383 0.6268820932220868
 0.6250330824297656 0.6268820932220868
 0.6240194183451355 0.6268820932220868
 0.6267658877866775 0.6268820932220868
 0.6158693070462019 0.6268820932220868
 0.6268244273290505 0.6268820932220868
 0.6229378294598983 0.6268820932220868
 0.6207810851766 0.6268820932220868
 0.6254843736196206 0.6268820932220868
 0.6259555882714963 0.6268820932220868
 0.6261087374429087 0.6268820932220868
 0.6264396265017076 0.6268820932220868
 0.6230117539872868 0.6268820932220868
 0.6261571099467201 0.6268820932220868
 0.6226664028951806 0.6268820932220868
 0.6224190095159942 0.6268820932220868
 0.6253176355886723 0.6268820932220868
 0.6218582839822557 0.6268820932220868
 0.6258375366282353 0.6268820932220868
 0.6267269039721874 0.6268820932220868
 0.6249770959073654 0.6268820932220868
 0.6259542721871011 0.6268820932220868
 0.620640632250979 0.6268820932220868
 0.6200253820046326 0.6268820932220868
 0.6223463524087389 0.6268820932220868
 0.6267412020883586 0.6268820932220868
 0.6270965287032373 0.6268820932220868
 0.6237385057290231 0.6268820932220868
 0.6263001765879262 0.6268820932220868
 0.6215048515603057 0.6268820932220868
 0.6269243072141254 0.6268820932220868
 0.619801840751634 0.6268820932220868
 0.6251567420053979 0.6268820932220868
 0.6258805256879528 0.6268820932220868
 0.6234513346604551 0.6268820932220868
 0.6268820932220868 0.6268820932220868
 0.626456295039404 0.6268820932220868
 0.6242378626459005 0.6268820932220868
 0.6266362076950177 0.6268820932220868
 0.6272655468955888 0.6268820932220868
 0.6226840714946154 0.6268820932220868
 0.6247798882801578 0.6268820932220868
 0.6273176206705794 0.6268820932220868
 0.6227902316310031 0.6268820932220868
 0.6234845223368735 0.6268820932220868
 0.625274401853628 0.6268820932220868
 0.6270998551955208 0.6268820932220868
 0.6219973610278042 0.6268820932220868
 0.6247238765155224 0.6268820932220868
 0.626844197144424 0.6268820932220868
 0.626878927554462 0.6268820932220868
 0.62730930152455 0.6268820932220868
 0.6268302440159869 0.6268820932220868
 0.617665406046277 0.6268820932220868
 0.6267734150758565 0.6268820932220868
 0.5822753217085975 0.6268820932220868
 0.6263204877698297 0.6268820932220868
 0.6265972696397193 0.6268820932220868
 0.6262204876090176 0.6268820932220868
 0.6246209958485255 0.6268820932220868
 0.6259851710321799 0.6268820932220868
 0.6181898116454205 0.6268820932220868
 0.6268754047571748 0.6268820932220868
 0.6205726671275019 0.6268820932220868
 0.6227806814467223 0.6268820932220868
 0.6264982457309698 0.6268820932220868
 0.6256194587269519 0.6268820932220868
 0.6267108218921787 0.6268820932220868
 0.6196833211078236 0.6268820932220868
 0.6258799145653893 0.6268820932220868
 0.6247856835166569 0.6268820932220868
 0.6268820932220868 0.6268820932220868
 0.6105476748987529 0.6268820932220868
 0.6262035939448288 0.6268820932220868
 0.6252336545655888 0.6268820932220868
 0.6278309858715705 0.6268820932220868
 0.6242481640971881 0.6268820932220868
 0.6257098933679107 0.6268820932220868
 0.6265437877248153 0.6268820932220868
 0.5814310757426995 0.6268820932220868
 0.6219036212098814 0.6268820932220868
 0.6266633083225356 0.6268820932220868
 0.6207578669802228 0.6268820932220868
 0.6249695126138022 0.6268820932220868
 0.6155034817158828 0.6268820932220868
 0.6132409954455007 0.6268820932220868
 0.6261835390097304 0.6268820932220868
 0.62562646219039 0.6268820932220868
 0.6266804211216482 0.6268820932220868
 0.6268820932220868 0.6268820932220868
 0.6245154683477875 0.6268820932220868
 0.6266752360041971 0.6268820932220868
 0.6246121700632259 0.6268820932220868
 0.6178159607830058 0.6268820932220868
 0.626066728939174 0.6268820932220868
 0.6246450514564218 0.6268820932220868
 0.6224923225600233 0.6268820932220868
 0.6275910795510018 0.6268820932220868
 0.6259522322869615 0.6268820932220868
 0.5803089425722636 0.6268820932220868
 0.6189657679625987 0.6268820932220868
 0.6246066492039565 0.6268820932220868
 0.6260947678480068 0.6268820932220868
 0.625135537236053 0.6268820932220868
 0.6268820932220868 0.6268820932220868
 0.6222979543474539 0.6268820932220868
 0.6273726577381967 0.6268820932220868
 0.5823163551599959 0.6268820932220868
 0.6264386046935039 0.6268820932220868
 0.6267511948719341 0.6268820932220868
 0.6219633404350932 0.6268820932220868
 0.6229894930818421 0.6268820932220868
 0.6253585738547676 0.6268820932220868
 0.6268820932220868 0.6268820932220868
 0.6194159506441893 0.6268820932220868
 0.627218879065312 0.6268820932220868
 0.6290294717963495 0.6268820932220868
 0.6268820932220868 0.6268820932220868
 0.6263272045481934 0.6268820932220868
 0.6268338812570255 0.6268820932220868
 0.6268820932220868 0.6268820932220868
 0.6268820932220868 0.6268820932220868
 0.6267324826185964 0.6268820932220868
 0.6266607778161019 0.6268820932220868
 0.6268837955629865 0.6268820932220868
 0.6220293671019563 0.6268820932220868
 0.6244638334057606 0.6268820932220868
 0.626667166145339 0.6268820932220868
 0.5795021706213235 0.6268820932220868
 0.6153040593286244 0.6268820932220868
 0.6268820932220868 0.6268820932220868
 0.6221840326120134 0.6268820932220868
 0.6208129725953513 0.6268820932220868
 0.6233042512162493 0.6268820932220868
 0.6257533715264441 0.6268820932220868
 0.6268927019837494 0.6268820932220868
 0.6264096428255708 0.6268820932220868
 0.6267659049567881 0.6268820932220868
 0.6268153407740701 0.6268820932220868
 0.6269276116666459 0.6268820932220868
 0.6267924197734245 0.6268820932220868
 0.6272449553684933 0.6268820932220868
 0.6168130410996068 0.6268820932220868
 0.6217143914809218 0.6268820932220868
 0.6269226582011118 0.6268820932220868
 0.626318878980657 0.6268820932220868
 0.6216671902741776 0.6268820932220868
 0.6268820932220868 0.6268820932220868
 0.6267386973849052 0.6268820932220868
 0.6169699214297092 0.6268820932220868
 0.6257293340321467 0.6268820932220868
 0.6259934955795651 0.6268820932220868
 0.6236267707211274 0.6268820932220868
 0.6225816639320274 0.6268820932220868
 0.625488041695797 0.6268820932220868
 0.626475571358985 0.6268820932220868
 0.6268584439553485 0.6268820932220868
 0.6268176553462037 0.6268820932220868
 0.6270960709606592 0.6268820932220868
 0.6260430524854416 0.6268820932220868
 0.6181472272440709 0.6268820932220868
 0.6267514304140246 0.6268820932220868
 0.6164512237437413 0.6268820932220868
 0.6253305417325724 0.6268820932220868
 0.6268645396540734 0.6268820932220868
 0.6268820932220868 0.6268820932220868
 0.6267618488213165 0.6268820932220868
 0.6259502794948104 0.6268820932220868
 0.6267791652696522 0.6268820932220868
 0.6261906119688639 0.6268820932220868
 0.6207190241430232 0.6268820932220868
 0.6260282320233811 0.6268820932220868
 0.6263672833856619 0.6268820932220868
 0.6269559491003341 0.6268820932220868
 0.6266200851768667 0.6268820932220868
 0.6268216933242849 0.6268820932220868
 0.6268372355699122 0.6268820932220868
 0.626434970360083 0.6268820932220868
 0.6258251824438126 0.6268820932220868
 0.6268820932220868 0.6268820932220868
 0.6268820932220868 0.6268820932220868
 0.6254496686638197 0.6268820932220868
 0.6268820932220868 0.6268820932220868
 0.6273237200450641 0.6268820932220868
 0.6268820932220868 0.6268820932220868
 0.615542743554516 0.6268820932220868
 0.623476691163602 0.6268820932220868
 0.6259796177297261 0.6268820932220868
 0.6252663258756159 0.6268820932220868
 0.6266772767400099 0.6268820932220868
 0.6262933715181402 0.6268820932220868
 0.6268820932220868 0.6268820932220868
 0.6204555749277411 0.6268820932220868
 0.6268820932220868 0.6268820932220868
 0.6250489338853501 0.6268820932220868
 0.6268820932220868 0.6268820932220868
 0.628096372829449 0.6268820932220868
 0.6244921005300891 0.6268820932220868
 0.624691205943448 0.6268820932220868
 0.6245694197368185 0.6268820932220868
 0.6200520725077351 0.6268820932220868
 0.6240506842942155 0.6268820932220868
 0.6268913018922362 0.6268820932220868
 0.6246313090666745 0.6268820932220868
 0.6221958324543743 0.6268820932220868
 0.6265415891096249 0.6268820932220868
 0.626634588917038 0.6268820932220868
 0.6258130769304294 0.6268820932220868
 0.5808219373995189 0.6268820932220868
 0.6268820932220868 0.6268820932220868
 0.625823774668072 0.6268820932220868
 0.6250409143972216 0.6268820932220868
 0.6255278260796288 0.6268820932220868
 0.626801356179394 0.6268820932220868
 0.6250682127644427 0.6268820932220868
 0.6247531908768302 0.6268820932220868
 0.6234104493296678 0.6268820932220868
 0.6246107472699983 0.6268820932220868
 0.6222445458622275 0.6268820932220868
 0.6148871173576268 0.6268820932220868
 0.627211857291364 0.6268820932220868
 0.6231827509625553 0.6268820932220868
 0.6247016801901665 0.6268820932220868
 0.6267889536684284 0.6268820932220868
 0.6267682128558499 0.6268820932220868
 0.6260185679068748 0.6268820932220868
 0.6238541504268751 0.6268820932220868
 0.626861148270029 0.6268820932220868
 0.6269641463754707 0.6268820932220868
 0.6253225770033093 0.6268820932220868
 0.6265195220106965 0.6268820932220868
 0.6261251920612241 0.6268820932220868
 0.6258593063293472 0.6268820932220868
 0.6268820932220868 0.6268820932220868
 0.6221974030528118 0.6268820932220868
 0.6261411581715359 0.6268820932220868
 0.6268378923356643 0.6268820932220868
 0.6279338833601817 0.6268820932220868
 0.6272008004163869 0.6268820932220868
 0.6269923678249546 0.6268820932220868
 0.6263940698231666 0.6268820932220868
 0.6268658775764387 0.6268820932220868
 0.6261280720123713 0.6268820932220868
 0.6256696015402774 0.6268820932220868
 0.6234020377671298 0.6268820932220868
 0.6263453672368504 0.6268820932220868
 0.6268737804587682 0.6268820932220868
 0.626165638916109 0.6268820932220868
 0.6210730572387687 0.6268820932220868
 0.6245731437901469 0.6268820932220868
 0.6264856028939545 0.6268820932220868
 0.6225814144457911 0.6268820932220868
 0.6199374106887561 0.6268820932220868
 0.6270336851377277 0.6268820932220868
 0.6268656861659123 0.6268820932220868
 0.6268140900222855 0.6268820932220868
 0.6264435115309828 0.6268820932220868
 0.6133295034001073 0.6268820932220868
 0.6275204919551375 0.6268820932220868
 0.6266414945075561 0.6268820932220868
 0.6259486367037468 0.6268820932220868
 0.621509806702007 0.6268820932220868
 0.6218525759493686 0.6268820932220868
 0.6267396026976186 0.6268820932220868
 0.6262623056618098 0.6268820932220868
 0.6224153295684819 0.6268820932220868
 0.6265247564713301 0.6268820932220868
 0.6268820932220868 0.6268820932220868
 0.62742746057402 0.6268820932220868
 0.6227720521302291 0.6268820932220868
 0.6262411376672783 0.6268820932220868
 0.6259541899126236 0.6268820932220868
 0.6281055179210174 0.6268820932220868
 0.6161969207922467 0.6268820932220868
 0.6258934282572285 0.6268820932220868
 0.6226525168452981 0.6268820932220868
 0.6267251632756218 0.6268820932220868
 0.6268820932220868 0.6268820932220868
 0.6193634075660186 0.6268820932220868
 0.6259939632347565 0.6268820932220868
 0.6268803839597619 0.6268820932220868
 0.623449615456617 0.6268820932220868
 0.6267368317221057 0.6268820932220868
 0.626973708198264 0.6268820932220868
 0.6268820932220868 0.6268820932220868
 0.6273269775705467 0.6268820932220868
 0.6268631482899902 0.6268820932220868
 0.6279491599964182 0.6268820932220868
 0.6267718517492985 0.6268820932220868
 0.6206715340012665 0.6268820932220868
 0.6254013364880988 0.6268820932220868
 0.6251619961142134 0.6268820932220868
 0.618614570548757 0.6268820932220868
 0.6266709531892483 0.6268820932220868
 0.62305951810909 0.6268820932220868
 0.6255907915979071 0.6268820932220868
 0.6268694625179894 0.6268820932220868
 0.6254444512591321 0.6268820932220868
 0.624360792264494 0.6268820932220868
 0.6240489932177872 0.6268820932220868
 0.6269919977492865 0.6268820932220868
 0.628648128813811 0.6268820932220868
 0.6259514167856876 0.6268820932220868
 0.6237300384361369 0.6268820932220868
 0.6197530637764098 0.6268820932220868
 0.6243569183606698 0.6268820932220868
 0.6268820932220868 0.6268820932220868
 0.6258242482035659 0.6268820932220868
 0.6267124124992277 0.6268820932220868
 0.6271917052567623 0.6268820932220868
 0.624627041568428 0.6268820932220868
 0.6182965308893926 0.6268820932220868
 0.6277844294248194 0.6268820932220868
 0.6249517237329821 0.6268820932220868
 0.6256751148916855 0.6268820932220868
 0.6263440560632431 0.6268820932220868
 0.6269057234206947 0.6268820932220868
 0.6227425783080304 0.6268820932220868
 0.6271732593645798 0.6268820932220868
 0.6268795389986778 0.6268820932220868
 0.6222042371549131 0.6268820932220868
 0.6244397478620923 0.6268820932220868
 0.6268576471778294 0.6268820932220868