# Created by Octave 4.0.0, Mon May 14 19:23:32 2018 CEST <olethros@olethros-OptiPlex-9010>
# name: results
# type: struct
# ndims: 2
 1 5
# length: 8
# name: options
# type: cell
# rows: 1
# columns: 5
# name: <cell-element>
# type: scalar struct
# ndims: 2
 1 1
# length: 8
# name: A
# type: scalar
2


# name: X
# type: scalar
8


# name: Y
# type: scalar
2


# name: Z
# type: scalar
2


# name: lambda
# type: scalar
0


# name: n_iter
# type: scalar
10000


# name: horizon
# type: scalar
1000


# name: n_samples
# type: scalar
16





# name: <cell-element>
# type: scalar struct
# ndims: 2
 1 1
# length: 8
# name: A
# type: scalar
2


# name: X
# type: scalar
8


# name: Y
# type: scalar
2


# name: Z
# type: scalar
2


# name: lambda
# type: scalar
0.25


# name: n_iter
# type: scalar
10000


# name: horizon
# type: scalar
1000


# name: n_samples
# type: scalar
16





# name: <cell-element>
# type: scalar struct
# ndims: 2
 1 1
# length: 8
# name: A
# type: scalar
2


# name: X
# type: scalar
8


# name: Y
# type: scalar
2


# name: Z
# type: scalar
2


# name: lambda
# type: scalar
0.5


# name: n_iter
# type: scalar
10000


# name: horizon
# type: scalar
1000


# name: n_samples
# type: scalar
16





# name: <cell-element>
# type: scalar struct
# ndims: 2
 1 1
# length: 8
# name: A
# type: scalar
2


# name: X
# type: scalar
8


# name: Y
# type: scalar
2


# name: Z
# type: scalar
2


# name: lambda
# type: scalar
0.75


# name: n_iter
# type: scalar
10000


# name: horizon
# type: scalar
1000


# name: n_samples
# type: scalar
16





# name: <cell-element>
# type: scalar struct
# ndims: 2
 1 1
# length: 8
# name: A
# type: scalar
2


# name: X
# type: scalar
8


# name: Y
# type: scalar
2


# name: Z
# type: scalar
2


# name: lambda
# type: scalar
1


# name: n_iter
# type: scalar
10000


# name: horizon
# type: scalar
1000


# name: n_samples
# type: scalar
16







# name: PU
# type: cell
# rows: 1
# columns: 5
# name: <cell-element>
# type: matrix
# rows: 1000
# columns: 2
 0.5100734358979907 0.4999904164495576
 0.4370784591250781 0.4989072379671863
 0.4968011457757375 0.476970890973941
 0.4714325830093262 0.4819508779735548
 0.3850555890470914 0.5204331934735491
 0.5905413208270497 0.4983871672809986
 0.4000813586156844 0.5031141563213116
 0.3920913836619104 0.5604818479252495
 0.550330098538095 0.4988975053149672
 0.5388132413974951 0.5464754321193926
 0.4604874270318464 0.5344683187560445
 0.5399928556768666 0.489140848666454
 0.5823900184273292 0.5081864771925705
 0.4930086705092828 0.5287486758602132
 0.577058827482283 0.5634970273576423
 0.4927358055620332 0.5154586682915357
 0.4949391835996491 0.527558208841145
 0.4555854410211739 0.5150497117215185
 0.5725746872290449 0.5073574501407411
 0.5805394195398055 0.5231503464311077
 0.4549427655606213 0.5259641208623588
 0.5744921499738869 0.5225813459661544
 0.4995576437130478 0.5389974224292126
 0.450070186172661 0.506195059214755
 0.5396867814374958 0.5782505659283316
 0.4949665900849825 0.5354607301698158
 0.5471664386825439 0.5756813417634495
 0.5899327408254703 0.5222482230587183
 0.5530839681945763 0.526394748794182
 0.4566622721440612 0.5258133508915556
 0.5329618638281731 0.5407114346193058
 0.4659679823279045 0.5359176330082792
 0.553635260950182 0.4926211801110911
 0.5482710944724267 0.5519901511421944
 0.5480132563713118 0.5098749616935222
 0.5462331361412264 0.5179950764259518
 0.5495805415064664 0.5297954951667546
 0.5534625711952621 0.5380722898299921
 0.5537361590102272 0.5238563968506988
 0.543655260038243 0.5253036165641034
 0.5530956327225349 0.521613515946019
 0.5480221243337757 0.5081838331849743
 0.5480472019443841 0.5133242193094539
 0.5510286226998551 0.5516445967121935
 0.5481609256783535 0.5366225511661658
 0.5535791189671242 0.5490850826785139
 0.5585592337780239 0.5141123526484472
 0.5547714409515334 0.519209293283057
 0.5455459763392185 0.564448788005515
 0.539008761193974 0.5298360472038228
 0.5533701577550036 0.5521889514160701
 0.5485760783947007 0.551801399951209
 0.5837840401783226 0.4938432809791626
 0.556184470808176 0.5062759263766077
 0.5535249273491979 0.4894626953302885
 0.5487436799455421 0.527886388294461
 0.5762153017261589 0.5801271087101006
 0.5549804114330741 0.5783679254405415
 0.5545379930717186 0.5827670050194644
 0.5553477876537907 0.5839766083674192
 0.5482048231296168 0.5840720692474435
 0.5841001158153195 0.5824852303172527
 0.5536685711142257 0.5828449115866443
 0.5484176374079673 0.583720037696615
 0.5565693374106087 0.5833752564002932
 0.5505793229468634 0.5833403086980784
 0.5511448812241068 0.5824638916130134
 0.5891323900337471 0.5824638916130134
 0.5901405080422499 0.5824638916130134
 0.5856237304555834 0.5824638916130134
 0.5901810048631875 0.5824638916130134
 0.5539165952704621 0.5840011410182171
 0.5900216071405722 0.5834097716752518
 0.5497476839474238 0.5826121470908796
 0.5904677362288051 0.5834480375853255
 0.5903613892816895 0.5828522202036719
 0.5880288830082947 0.5838852687193323
 0.5535350438974029 0.5834605847018064
 0.553833671291885 0.5834314414247763
 0.5906261463005085 0.5841178147181554
 0.590450035812051 0.5827424147508971
 0.5542040813500284 0.5837301420530467
 0.5888759400516399 0.5833225291746322
 0.5904215320448425 0.5832411942329421
 0.5521972997110072 0.5836261583046358
 0.5890012859483984 0.5836381426178676
 0.5542661326663437 0.5830863617329702
 0.551390705399218 0.5839029887251148
 0.5553132172269151 0.5832085852182647
 0.553667978678528 0.583291778632101
 0.5546011155063941 0.5828740679438846
 0.5579394597678971 0.582655893362571
 0.5546288462240834 0.5837429990141982
 0.5491507518917853 0.5835014182403413
 0.553821790250955 0.583917541854766
 0.5551435121355489 0.5831622235309162
 0.5535538661086892 0.5838042957773131
 0.5547432401047276 0.5831428763085447
 0.554894651296475 0.5828114818533801
 0.5537444757193923 0.5840919124408697
 0.5896991262486468 0.5835369470425915
 0.5536370019726842 0.5831590497674521
 0.5513493005877259 0.582520357584573
 0.5539612045356415 0.5836232910475398
 0.5959329420483783 0.5838421119767037
 0.5605690287611849 0.5837968394436985
 0.5900093988554569 0.5827225400343106
 0.5540915162231491 0.5831924298943918
 0.5573560485545019 0.5834702009715906
 0.5882758350567795 0.5836283683901051
 0.5536846618395135 0.5827678946866655
 0.5538014385435883 0.5836993379113751
 0.5856311109750698 0.5829122830405937
 0.554976479449413 0.5832353579252427
 0.5907171203864992 0.5833842274311409
 0.5899405416104466 0.5839357914614416
 0.5542105019329919 0.5831819474500619
 0.5889651213424008 0.5833237570741467
 0.5886433029159741 0.5830460108975135
 0.5546952702445094 0.5841358395723579
 0.5906657284132542 0.5834917083988844
 0.5538109748589248 0.5835684672293604
 0.5538014385435883 0.5832201206394461
 0.5537998062730201 0.5832956729320642
 0.5538887504157599 0.5842822830745618
 0.5907416969895969 0.5842822830745618
 0.5904847216398572 0.5842822830745618
 0.550030372870294 0.5842822830745618
 0.5905751331690898 0.5842822830745618
 0.590017639239873 0.5842822830745618
 0.5878296375942271 0.5842822830745618
 0.5905502400416609 0.5842822830745618
 0.5891020786963816 0.5842822830745618
 0.5907004053351057 0.5842822830745618
 0.5896072111550209 0.5842822830745618
 0.5901536482672964 0.5842822830745618
 0.5901797420308472 0.5842822830745618
 0.594192998792479 0.5842822830745618
 0.5906644404774455 0.5842822830745618
 0.5904820922602969 0.5842822830745618
 0.5904740097059205 0.5842822830745618
 0.589618603300968 0.5842822830745618
 0.5897201877767453 0.5842822830745618
 0.590877377745582 0.5842822830745618
 0.5908044427070538 0.5842822830745618
 0.5901446765172831 0.5842822830745618
 0.5907171203864992 0.5842822830745618
 0.5945349668873399 0.5842822830745618
 0.5907560223997084 0.5842822830745618
 0.5929315926047964 0.5842822830745618
 0.5886986103463361 0.5842822830745618
 0.5903115772886687 0.5842822830745618
 0.5929619120522049 0.5842822830745618
 0.5907057725821139 0.5842822830745618
 0.5904478347936328 0.5842822830745618
 0.5903571170472965 0.5842822830745618
 0.5907171203864992 0.5842822830745618
 0.5898861067974106 0.5842822830745618
 0.5899682494671971 0.5842822830745618
 0.5899145171775664 0.5842822830745618
 0.5901596844482644 0.5842822830745618
 0.5906129141843008 0.5842822830745618
 0.577121134814806 0.5842822830745618
 0.5906988061824907 0.5842822830745618
 0.588505215474231 0.5842822830745618
 0.5926182646287996 0.5842822830745618
 0.588638756520278 0.5842822830745618
 0.590533520057187 0.5842822830745618
 0.5878571651830788 0.5842822830745618
 0.5903487831740831 0.5842822830745618
 0.5857510739378329 0.5842822830745618
 0.5907435345384497 0.5842822830745618
 0.5902208716559345 0.5842822830745618
 0.5905082892516275 0.5842822830745618
 0.5900806572493933 0.5842822830745618
 0.5862295419746757 0.5842822830745618
 0.5899986571777556 0.5842822830745618
 0.5856491262852425 0.5842822830745618
 0.589216139311072 0.5842822830745618
 0.5872253014033865 0.5842822830745618
 0.5907171203864992 0.5842822830745618
 0.5901605554953138 0.5842822830745618
 0.5942386761272584 0.5842822830745618
 0.58998447810904 0.5842822830745618
 0.5907171203864992 0.5842822830745618
 0.5899009549345471 0.5842822830745618
 0.5846233799841607 0.5842822830745618
 0.5907139431881756 0.5842822830745618
 0.5907171203864992 0.5842822830745618
 0.5539766106963775 0.5842822830745618
 0.5901072273855279 0.5842822830745618
 0.5564870045757176 0.5842822830745618
 0.5862064246586021 0.5842822830745618
 0.5548469295580565 0.5842822830745618
 0.5862381068291418 0.5842822830745618
 0.5905455436351461 0.5842822830745618
 0.5907171203864992 0.5842822830745618
 0.5916667067844581 0.5842822830745618
 0.5905805902745688 0.5842822830745618
 0.5923353255571441 0.5842822830745618
 0.5935569169080097 0.5842822830745618
 0.5902207547202865 0.5842822830745618
 0.5900672763602959 0.5842822830745618
 0.590638105948317 0.5842822830745618
 0.5901816722829625 0.5842822830745618
 0.5905551643594411 0.5842822830745618
 0.5905963042894737 0.5842822830745618
 0.5889748568085574 0.5842822830745618
 0.5929764518146465 0.5842822830745618
 0.5904040395918557 0.5842822830745618
 0.5904229165334347 0.5842822830745618
 0.5876057167948141 0.5842822830745618
 0.5907132588056208 0.5842822830745618
 0.5898595411440635 0.5842822830745618
 0.5905232092197373 0.5842822830745618
 0.590776749386293 0.5842822830745618
 0.5907171203864992 0.5842822830745618
 0.5907171203864992 0.5842822830745618
 0.5903557036143552 0.5842822830745618
 0.590441772228965 0.5842822830745618
 0.5900256349725338 0.5842822830745618
 0.5898113405469216 0.5842822830745618
 0.5957955048483896 0.5842822830745618
 0.5906378674105182 0.5842822830745618
 0.5861698958423611 0.5842822830745618
 0.5905394839391021 0.5842822830745618
 0.5910750801422906 0.5842822830745618
 0.5904505686328856 0.5842822830745618
 0.5902970565449652 0.5842822830745618
 0.5907171203864992 0.5842822830745618
 0.5903610348663912 0.5842822830745618
 0.5876362176209764 0.5842822830745618
 0.590481324276407 0.5842822830745618
 0.5547712405281 0.5842822830745618
 0.5906822926291306 0.5842822830745618
 0.5906060785830285 0.5842822830745618
 0.5904791950645389 0.5842822830745618
 0.590770001824231 0.5842822830745618
 0.5903205139203186 0.5842822830745618
 0.5902893587473219 0.5842822830745618
 0.5817914381430805 0.5842822830745618
 0.5905239708875499 0.5842822830745618
 0.5900706151256319 0.5842822830745618
 0.5477297899593848 0.5842822830745618
 0.5906161964894346 0.5842822830745618
 0.5905035560886033 0.5842822830745618
 0.5905013272376938 0.5842822830745618
 0.5840076857506369 0.5842822830745618
 0.590698985343012 0.5842822830745618
 0.5903677487669641 0.5842822830745618
 0.5951140719444123 0.5842822830745618
 0.5876108502413562 0.5842822830745618
 0.5903406892783344 0.5842822830745618
 0.5838262521980172 0.5842822830745618
 0.5874506373261903 0.5842822830745618
 0.5776529038170355 0.5842822830745618
 0.5904515787663888 0.5842822830745618
 0.5908329080065083 0.5842822830745618
 0.5905260006945287 0.5842822830745618
 0.5911973427022967 0.5842822830745618
 0.5837780187843343 0.5842822830745618
 0.5878652655029076 0.5842822830745618
 0.5930642057130806 0.5842822830745618
 0.5840717818947242 0.5842822830745618
 0.5840253254072434 0.5842822830745618
 0.5540453966130605 0.5842822830745618
 0.5833953725660763 0.5842822830745618
 0.5903958845196436 0.5842822830745618
 0.5780071322987064 0.5842822830745618
 0.5834728248762909 0.5842822830745618
 0.5883689892890593 0.5842822830745618
 0.554498257992895 0.5842822830745618
 0.5900522207960874 0.5842822830745618
 0.5930778435470818 0.5842822830745618
 0.5830645490313616 0.5842822830745618
 0.5975030467300433 0.5842822830745618
 0.5838070423260446 0.5842822830745618
 0.5902753805652763 0.5842822830745618
 0.5539825116739662 0.5842822830745618
 0.582235954476343 0.5842822830745618
 0.5839932196936889 0.5842822830745618
 0.5837174031365399 0.5842822830745618
 0.5903609930126993 0.5842822830745618
 0.5796013459390715 0.5842822830745618
 0.5902870621776223 0.5842822830745618
 0.5901401603669489 0.5842822830745618
 0.583052490061954 0.5842822830745618
 0.589595460325082 0.5842822830745618
 0.5832382613052498 0.5842822830745618
 0.5443943182263516 0.5842822830745618
 0.590698310718434 0.5842822830745618
 0.5828994326959636 0.5842822830745618
 0.5837140754878463 0.5842822830745618
 0.5837997376015456 0.5842822830745618
 0.5840621783354454 0.5842822830745618
 0.5837393676499747 0.5842822830745618
 0.5838119129046587 0.5842822830745618
 0.5773230870248044 0.5842822830745618
 0.5475976084261219 0.5842822830745618
 0.5787171123943885 0.5842822830745618
 0.5837997376015456 0.5842822830745618
 0.5835646662158794 0.5842822830745618
 0.5786783464925216 0.5842822830745618
 0.5837580608973991 0.5842822830745618
 0.5838265075792115 0.5842822830745618
 0.5822575387024829 0.5842822830745618
 0.5837737980521868 0.5842822830745618
 0.5836391592570955 0.5842822830745618
 0.5784849471053434 0.5842822830745618
 0.544317418572685 0.5842822830745618
 0.5841029213102203 0.5842822830745618
 0.5837997376015456 0.5842822830745618
 0.5838988380577399 0.5842822830745618
 0.5775098360441964 0.5842822830745618
 0.5837151497459672 0.5842822830745618
 0.5835309759192521 0.5842822830745618
 0.5852595267855799 0.5842822830745618
 0.5833225270800361 0.5842822830745618
 0.5878760596252223 0.5842822830745618
 0.5837997376015456 0.5842822830745618
 0.5838262198567662 0.5842822830745618
 0.5468631428440348 0.5842822830745618
 0.5836837014836904 0.5842822830745618
 0.583790050030214 0.5842822830745618
 0.5839144913526682 0.5842822830745618
 0.5837819394353614 0.5842822830745618
 0.5839030625155006 0.5842822830745618
 0.583560599621976 0.5842822830745618
 0.5906882962893047 0.5842822830745618
 0.5834557094203262 0.5842822830745618
 0.590327375593109 0.5842822830745618
 0.5838213632834528 0.5842822830745618
 0.5839927073351469 0.5842822830745618
 0.5879251174757858 0.5842822830745618
 0.5906344166229458 0.5842822830745618
 0.5906008150270223 0.5842822830745618
 0.5907133574356995 0.5842822830745618
 0.5815298111415959 0.5842822830745618
 0.57873104733942 0.5842822830745618
 0.5840484343954465 0.5842822830745618
 0.5499177821963931 0.5842822830745618
 0.5837997376015456 0.5842822830745618
 0.5911703239149422 0.5842822830745618
 0.5879117643490215 0.5842822830745618
 0.5474016482533012 0.5842822830745618
 0.577357934328949 0.5842822830745618
 0.5836202162265927 0.5842822830745618
 0.5452775718777243 0.5842822830745618
 0.5820463963316761 0.5842822830745618
 0.5548538895478867 0.5842822830745618
 0.5904763424008473 0.5842822830745618
 0.5839220445220663 0.5842822830745618
 0.5907159872909549 0.5842822830745618
 0.5829501085956397 0.5842822830745618
 0.5913861121610141 0.5842822830745618
 0.5837011388479163 0.5842822830745618
 0.5908102397877806 0.5842822830745618
 0.585109079394293 0.5842822830745618
 0.5835580000403069 0.5842822830745618
 0.5835351796863409 0.5842822830745618
 0.5906640433347723 0.5842822830745618
 0.5907171203864992 0.5842822830745618
 0.5903582298825973 0.5842822830745618
 0.5906140269532174 0.5842822830745618
 0.5845883498213191 0.5842822830745618
 0.5900160693728335 0.5842822830745618
 0.586714730229428 0.5842822830745618
 0.5764848804462406 0.5842822830745618
 0.5906832383968925 0.5842822830745618
 0.5906919376963109 0.5842822830745618
 0.583087125314914 0.5842822830745618
 0.5908534170082071 0.5842822830745618
 0.5900336034741105 0.5842822830745618
 0.5893649689480414 0.5842822830745618
 0.590015794866134 0.5842822830745618
 0.5880048798628521 0.5842822830745618
 0.5902835735448813 0.5842822830745618
 0.5896622099093221 0.5842822830745618
 0.5907023351790222 0.5842822830745618
 0.554287800541017 0.5842822830745618
 0.5514982962233371 0.5842822830745618
 0.5904896400840278 0.5842822830745618
 0.5907039344485722 0.5842822830745618
 0.5900663431407778 0.5842822830745618
 0.5896833662506781 0.5842822830745618
 0.5900532693425218 0.5842822830745618
 0.5907433158483917 0.5842822830745618
 0.5905855848073631 0.5842822830745618
 0.5906365298854523 0.5842822830745618
 0.5898797668932771 0.5842822830745618
 0.5538014385435883 0.5842822830745618
 0.5880599874412018 0.5842822830745618
 0.5905418685569852 0.5842822830745618
 0.5905145818709114 0.5842822830745618
 0.5543801047630503 0.5842822830745618
 0.5906922631961498 0.5842822830745618
 0.5901566068445214 0.5842822830745618
 0.5900459850600697 0.5842822830745618
 0.5897467352104572 0.5842822830745618
 0.5905862271785662 0.5842822830745618
 0.5907171203864992 0.5842822830745618
 0.5897243834251955 0.5842822830745618
 0.5916239246836317 0.5842822830745618
 0.5906902217765737 0.5842822830745618
 0.5902550383363627 0.5842822830745618
 0.5903548405104979 0.5842822830745618
 0.5904392864094566 0.5842822830745618
 0.5903766800848534 0.5842822830745618
 0.5904511293955388 0.5842822830745618
 0.5898192758944292 0.5842822830745618
 0.5904762863883311 0.5842822830745618
 0.5905612425718421 0.5842822830745618
 0.59068848429165 0.5842822830745618
 0.5896081418976056 0.5842822830745618
 0.5843245430291036 0.5842822830745618
 0.5905612855330566 0.5842822830745618
 0.5896280704258496 0.5842822830745618
 0.5542259329305088 0.5842822830745618
 0.5906821409701393 0.5842822830745618
 0.5904346339870403 0.5842822830745618
 0.5903191597227527 0.5842822830745618
 0.5898349293193819 0.5842822830745618
 0.5905488926193588 0.5842822830745618
 0.5899170255796107 0.5842822830745618
 0.5905153940340818 0.5842822830745618
 0.587064199451746 0.5842822830745618
 0.586559253693006 0.5842822830745618
 0.5838772105973276 0.5842822830745618
 0.5889739946182336 0.5842822830745618
 0.5836321975449386 0.5842822830745618
 0.5906952761277686 0.5842822830745618
 0.5923480510253809 0.5842822830745618
 0.5839353565508711 0.5842822830745618
 0.5906152096074414 0.5842822830745618
 0.5904985989822439 0.5842822830745618
 0.590319411562346 0.5842822830745618
 0.5544999790327032 0.5842822830745618
 0.5763615520168587 0.5842822830745618
 0.5838254048856575 0.5842822830745618
 0.5882411139729116 0.5842822830745618
 0.5905049181577646 0.5842822830745618
 0.5905098507534294 0.5842822830745618
 0.5906132344325997 0.5842822830745618
 0.5906474347325961 0.5842822830745618
 0.5907171203864992 0.5842822830745618
 0.5935454865405388 0.5842822830745618
 0.5907171203864992 0.5842822830745618
 0.588826522869794 0.5842822830745618
 0.5888733157730355 0.5842822830745618
 0.5907909421845363 0.5842822830745618
 0.5906436446199377 0.5842822830745618
 0.5907127021117839 0.5842822830745618
 0.5905685543327807 0.5842822830745618
 0.5928140156083546 0.5842822830745618
 0.5898402008623121 0.5842822830745618
 0.5905726059388793 0.5842822830745618
 0.5905907879256942 0.5842822830745618
 0.5839451765765652 0.5842822830745618
 0.5905172918134254 0.5842822830745618
 0.5898359328446314 0.5842822830745618
 0.5905886162114156 0.5842822830745618
 0.5908687129847584 0.5842822830745618
 0.5904402987027115 0.5842822830745618
 0.5885073953614828 0.5842822830745618
 0.590304305435682 0.5842822830745618
 0.588720699684055 0.5842822830745618
 0.5916340952244541 0.5842822830745618
 0.5907171203864992 0.5842822830745618
 0.5905495839827941 0.5842822830745618
 0.5906130463904223 0.5842822830745618
 0.5907104051485299 0.5842822830745618
 0.5902010084602891 0.5842822830745618
 0.5840492618224868 0.5842822830745618
 0.5906597261180742 0.5842822830745618
 0.5906659497638749 0.5842822830745618
 0.5806235939552338 0.5842822830745618
 0.5907027321947721 0.5842822830745618
 0.5906681031565824 0.5842822830745618
 0.5906933505687921 0.5842822830745618
 0.5907648545152002 0.5842822830745618
 0.5907171203864992 0.5842822830745618
 0.5904795541567741 0.5842822830745618
 0.5898262837040277 0.5842822830745618
 0.5906616134277889 0.5842822830745618
 0.5905698905156905 0.5842822830745618
 0.5900140344328395 0.5842822830745618
 0.5906336723559985 0.5842822830745618
 0.5905656955324194 0.5842822830745618
 0.5905469166517788 0.5842822830745618
 0.589355077759377 0.5842822830745618
 0.5905789579871605 0.5842822830745618
 0.5902429035398021 0.5842822830745618
 0.5904361107721181 0.5842822830745618
 0.5926686806664609 0.5842822830745618
 0.5905409551994151 0.5842822830745618
 0.5908157740022337 0.5842822830745618
 0.5906655488999998 0.5842822830745618
 0.5902877581940167 0.5842822830745618
 0.5905058960422853 0.5842822830745618
 0.5904763098570927 0.5842822830745618
 0.5907593035322005 0.5842822830745618
 0.5906519078595489 0.5842822830745618
 0.5906892343792031 0.5842822830745618
 0.5907171203864992 0.5842822830745618
 0.588852639643763 0.5842822830745618
 0.5895822070540734 0.5842822830745618
 0.590545301330637 0.5842822830745618
 0.5850002475653315 0.5842822830745618
 0.5907760909174893 0.5842822830745618
 0.5876438296149037 0.5842822830745618
 0.5907171203864992 0.5842822830745618
 0.5900621006455667 0.5842822830745618
 0.5839421803811857 0.5842822830745618
 0.5905414872501302 0.5842822830745618
 0.5907171203864992 0.5842822830745618
 0.5904196232444464 0.5842822830745618
 0.5907171203864992 0.5842822830745618
 0.5907820525480283 0.5842822830745618
 0.5904945381989413 0.5842822830745618
 0.5906138071272902 0.5842822830745618
 0.5906421642826694 0.5842822830745618
 0.5906103596573404 0.5842822830745618
 0.5865437096954811 0.5842822830745618
 0.5870038454058171 0.5842822830745618
 0.5891067225667834 0.5842822830745618
 0.590811821973793 0.5842822830745618
 0.5917115701011783 0.5842822830745618
 0.5907171203864992 0.5842822830745618
 0.5906576124820974 0.5842822830745618
 0.5896932013978101 0.5842822830745618
 0.5907240450634703 0.5842822830745618
 0.5906500880327555 0.5842822830745618
 0.5906864234243676 0.5842822830745618
 0.5906636270113557 0.5842822830745618
 0.5878790896738607 0.5842822830745618
 0.5902485180574056 0.5842822830745618
 0.5907152162059401 0.5842822830745618
 0.5907171203864992 0.5842822830745618
 0.5906002733584842 0.5842822830745618
 0.5906005164406776 0.5842822830745618
 0.5905646022947998 0.5842822830745618
 0.5906954683785558 0.5842822830745618
 0.5907171203864992 0.5842822830745618
 0.5905899852340654 0.5842822830745618
 0.5896403027460124 0.5842822830745618
 0.5901652183852538 0.5842822830745618
 0.5907171203864992 0.5842822830745618
 0.5903366023759857 0.5842822830745618
 0.5905479860152731 0.5842822830745618
 0.5881603660853993 0.5842822830745618
 0.5933466746236021 0.5842822830745618
 0.5905099164515946 0.5842822830745618
 0.589606983950241 0.5842822830745618
 0.5900717582844356 0.5842822830745618
 0.5906130921962481 0.5842822830745618
 0.5906952360832547 0.5842822830745618
 0.5883009617415347 0.5842822830745618
 0.5906506165395284 0.5842822830745618
 0.5933160840394944 0.5842822830745618
 0.5918782856234985 0.5842822830745618
 0.5907081249628243 0.5842822830745618
 0.5907991305657945 0.5842822830745618
 0.5905973759183218 0.5842822830745618
 0.5905111816317339 0.5842822830745618
 0.5904814441724862 0.5842822830745618
 0.5905106496699355 0.5842822830745618
 0.5905024320217452 0.5842822830745618
 0.5905064081865911 0.5842822830745618
 0.5906394481166721 0.5842822830745618
 0.5888999382615927 0.5842822830745618
 0.5906697854242315 0.5842822830745618
 0.5902133246844379 0.5842822830745618
 0.5906746334466679 0.5842822830745618
 0.5841079673902898 0.5842822830745618
 0.5907171203864992 0.5842822830745618
 0.5868776438924316 0.5842822830745618
 0.590560017207488 0.5842822830745618
 0.5906384676851437 0.5842822830745618
 0.5906160862239306 0.5842822830745618
 0.589434053633785 0.5842822830745618
 0.5830365369301395 0.5842822830745618
 0.5906058965732228 0.5842822830745618
 0.590015254855707 0.5842822830745618
 0.5907125745685718 0.5842822830745618
 0.5905943191030618 0.5842822830745618
 0.5906546165086635 0.5842822830745618
 0.5904117760671317 0.5842822830745618
 0.5900507548605179 0.5842822830745618
 0.5906666524845121 0.5842822830745618
 0.5906022028528212 0.5842822830745618
 0.5917215277756952 0.5842822830745618
 0.5837997376015456 0.5842822830745618
 0.5898333482764269 0.5842822830745618
 0.5922986487641584 0.5842822830745618
 0.5906097327003781 0.5842822830745618
 0.5905970603921629 0.5842822830745618
 0.5907077062376398 0.5842822830745618
 0.5906378001468033 0.5842822830745618
 0.5891802559818837 0.5842822830745618
 0.5903754115522268 0.5842822830745618
 0.5904820463729132 0.5842822830745618
 0.5905095688111031 0.5842822830745618
 0.5907194293545164 0.5842822830745618
 0.5905666251446713 0.5842822830745618
 0.5930719300598087 0.5842822830745618
 0.5882323925849537 0.5842822830745618
 0.5938150274800214 0.5842822830745618
 0.5901080019623023 0.5842822830745618
 0.5901473911730366 0.5842822830745618
 0.590547692793245 0.5842822830745618
 0.5807270273852345 0.5842822830745618
 0.5902181260247912 0.5842822830745618
 0.5902516933899479 0.5842822830745618
 0.5901691033227774 0.5842822830745618
 0.5905184896631015 0.5842822830745618
 0.5907110279765296 0.5842822830745618
 0.5840692519582138 0.5842822830745618
 0.5907171203864992 0.5842822830745618
 0.5907171203864992 0.5842822830745618
 0.5905408822080076 0.5842822830745618
 0.5905731076378701 0.5842822830745618
 0.5907171203864992 0.5842822830745618
 0.5901098172177162 0.5842822830745618
 0.5905818003194334 0.5842822830745618
 0.5907171203864992 0.5842822830745618
 0.5905968715832803 0.5842822830745618
 0.5900416445025198 0.5842822830745618
 0.5858872924334002 0.5842822830745618
 0.5928042821970785 0.5842822830745618
 0.5927173999622184 0.5842822830745618
 0.5929228279089552 0.5842822830745618
 0.5927836309318895 0.5842822830745618
 0.5927664510709003 0.5842822830745618
 0.5889882373383046 0.5842822830745618
 0.5840627334217681 0.5842822830745618
 0.5892647636582495 0.5842822830745618
 0.5906989143784296 0.5842822830745618
 0.590509480066 0.5842822830745618
 0.5905560632825186 0.5842822830745618
 0.5839249712077569 0.5842822830745618
 0.5907171203864992 0.5842822830745618
 0.587095893805482 0.5842822830745618
 0.5906662445848201 0.5842822830745618
 0.5909377712719583 0.5842822830745618
 0.5905561949924958 0.5842822830745618
 0.5898168486517674 0.5842822830745618
 0.5907296241731503 0.5842822830745618
 0.5906159296341436 0.5842822830745618
 0.5907178624901122 0.5842822830745618
 0.5906260870023421 0.5842822830745618
 0.5904781180976819 0.5842822830745618
 0.590756205546775 0.5842822830745618
 0.5907171203864992 0.5842822830745618
 0.5907171203864992 0.5842822830745618
 0.5887633071155305 0.5842822830745618
 0.574740378043918 0.5842822830745618
 0.5907638406358398 0.5842822830745618
 0.5871024546314435 0.5842822830745618
 0.586624113054262 0.5842822830745618
 0.5906963219217574 0.5842822830745618
 0.5865309902253886 0.5842822830745618
 0.5874391844268589 0.5842822830745618
 0.5920830170444531 0.5842822830745618
 0.590613010261779 0.5842822830745618
 0.590559417802582 0.5842822830745618
 0.5895309290087429 0.5842822830745618
 0.5901094255169506 0.5842822830745618
 0.5906494808934486 0.5842822830745618
 0.5907617820558797 0.5842822830745618
 0.5889438560093465 0.5842822830745618
 0.5897864388968275 0.5842822830745618
 0.5905619302006374 0.5842822830745618
 0.5933586172685554 0.5842822830745618
 0.5904204120650782 0.5842822830745618
 0.5907347599443287 0.5842822830745618
 0.591789036267927 0.5842822830745618
 0.5906472171902388 0.5842822830745618
 0.5891450989712677 0.5842822830745618
 0.5907171203864992 0.5842822830745618
 0.5928782396184982 0.5842822830745618
 0.5935025391114088 0.5842822830745618
 0.5901680191024691 0.5842822830745618
 0.5903683067787732 0.5842822830745618
 0.5907404392141734 0.5842822830745618
 0.5897612528813257 0.5842822830745618
 0.5940183792362561 0.5842822830745618
 0.5874375273909687 0.5842822830745618
 0.5893266562795672 0.5842822830745618
 0.5903771087664248 0.5842822830745618
 0.5906848503776674 0.5842822830745618
 0.5821754019091105 0.5842822830745618
 0.5907971367114316 0.5842822830745618
 0.5888411569823317 0.5842822830745618
 0.5905586348100466 0.5842822830745618
 0.5906908083498269 0.5842822830745618
 0.5865399215926275 0.5842822830745618
 0.5894546984602305 0.5842822830745618
 0.5904178587394557 0.5842822830745618
 0.590642400054689 0.5842822830745618
 0.5906698542928679 0.5842822830745618
 0.5907158926943836 0.5842822830745618
 0.5907510148442519 0.5842822830745618
 0.5909397356244868 0.5842822830745618
 0.5906636597568895 0.5842822830745618
 0.5891081489836109 0.5842822830745618
 0.5907171203864992 0.5842822830745618
 0.5907285834726153 0.5842822830745618
 0.5906265854541779 0.5842822830745618
 0.5867145800051332 0.5842822830745618
 0.5906950543151319 0.5842822830745618
 0.5909064222799687 0.5842822830745618
 0.5794156596236951 0.5842822830745618
 0.5906505342255192 0.5842822830745618
 0.5907171203864992 0.5842822830745618
 0.5896562506252256 0.5842822830745618
 0.5905941718151178 0.5842822830745618
 0.5906393821980952 0.5842822830745618
 0.5905171980887558 0.5842822830745618
 0.5907274116921035 0.5842822830745618