# Created by Octave 4.0.0, Mon May 14 02:47:45 2018 CEST <olethros@olethros-OptiPlex-9010>
# name: results
# type: struct
# ndims: 2
 1 5
# length: 8
# name: options
# type: cell
# rows: 1
# columns: 5
# name: <cell-element>
# type: scalar struct
# ndims: 2
 1 1
# length: 8
# name: A
# type: scalar
2


# name: X
# type: scalar
8


# name: Y
# type: scalar
2


# name: Z
# type: scalar
2


# name: lambda
# type: scalar
0


# name: n_iter
# type: scalar
10000


# name: horizon
# type: scalar
1000


# name: n_samples
# type: scalar
16





# name: <cell-element>
# type: scalar struct
# ndims: 2
 1 1
# length: 8
# name: A
# type: scalar
2


# name: X
# type: scalar
8


# name: Y
# type: scalar
2


# name: Z
# type: scalar
2


# name: lambda
# type: scalar
0.25


# name: n_iter
# type: scalar
10000


# name: horizon
# type: scalar
1000


# name: n_samples
# type: scalar
16





# name: <cell-element>
# type: scalar struct
# ndims: 2
 1 1
# length: 8
# name: A
# type: scalar
2


# name: X
# type: scalar
8


# name: Y
# type: scalar
2


# name: Z
# type: scalar
2


# name: lambda
# type: scalar
0.5


# name: n_iter
# type: scalar
10000


# name: horizon
# type: scalar
1000


# name: n_samples
# type: scalar
16





# name: <cell-element>
# type: scalar struct
# ndims: 2
 1 1
# length: 8
# name: A
# type: scalar
2


# name: X
# type: scalar
8


# name: Y
# type: scalar
2


# name: Z
# type: scalar
2


# name: lambda
# type: scalar
0.75


# name: n_iter
# type: scalar
10000


# name: horizon
# type: scalar
1000


# name: n_samples
# type: scalar
16





# name: <cell-element>
# type: scalar struct
# ndims: 2
 1 1
# length: 8
# name: A
# type: scalar
2


# name: X
# type: scalar
8


# name: Y
# type: scalar
2


# name: Z
# type: scalar
2


# name: lambda
# type: scalar
1


# name: n_iter
# type: scalar
10000


# name: horizon
# type: scalar
1000


# name: n_samples
# type: scalar
16







# name: PU
# type: cell
# rows: 1
# columns: 5
# name: <cell-element>
# type: matrix
# rows: 1000
# columns: 2
 0.6258671913212337 0.456364062391277
 0.4156804480050662 0.456364062391277
 0.3718929856947921 0.4572563595531404
 0.6221831810670526 0.5290968163449438
 0.6697970526780604 0.5341503550953501
 0.6709780552492872 0.4411159819271019
 0.5597175759832762 0.5011175734665128
 0.6380065942162493 0.5518759270034104
 0.5821263045832126 0.608010547409381
 0.5966123288750047 0.6211868121826126
 0.5337491141158057 0.6592442870225235
 0.6168602472657911 0.6180173879475649
 0.5840324863425576 0.6046444075084773
 0.6297850281449421 0.6530306354862453
 0.6412056684032318 0.6287678346420257
 0.5695877808576431 0.6446373167748746
 0.6836287892022525 0.6606184834068436
 0.6888003513709543 0.6554049158718175
 0.6837360420395875 0.6340354903825196
 0.6215168947560588 0.6676968048007551
 0.6828377785620087 0.6240982047069615
 0.6692908303975164 0.6407853237884976
 0.6047811611827727 0.6430107640999129
 0.5381165034393951 0.6495452532399225
 0.6502618764071998 0.6447569462187098
 0.5970602597151926 0.623393408302111
 0.6509114497969978 0.6631865619055631
 0.6473774192349632 0.6738130551473563
 0.6092812456055121 0.6611128237385362
 0.6448737178220919 0.6816568614784021
 0.610355239244996 0.6835750405697378
 0.6063157096490479 0.6890610159616773
 0.6475829771615711 0.6628964819959268
 0.6462528093918763 0.6703815235500106
 0.689319438025895 0.6844481839116802
 0.646031908512615 0.6634442928301426
 0.6894956566458679 0.6744095912141225
 0.5831186974059243 0.6522087484368202
 0.5847144123909968 0.6548830646401884
 0.689830092481542 0.6533741971784585
 0.6875459345224523 0.6139790866216812
 0.6280167839084791 0.6015861026776429
 0.5855287866472624 0.6546433676828268
 0.6260482902497978 0.6631366583762131
 0.6448217528839985 0.641854331140003
 0.6874618717508282 0.6313051629992769
 0.5856174403102533 0.6461640293163641
 0.6465612210416624 0.6482512451382009
 0.6467902256971402 0.6322749355799374
 0.6467454547632038 0.6680266044515398
 0.6471328502908146 0.6770090582066569
 0.6290452917375782 0.6737645343036875
 0.688524700973252 0.6677809410399963
 0.6879174101384743 0.6756490556539219
 0.6897944760594102 0.6667153585281314
 0.6900298176036975 0.6856169284813444
 0.6900247465443555 0.6778714282295978
 0.6890568641321484 0.67658710455108
 0.689949477992163 0.6691563662042798
 0.6884156779951831 0.6773483317294904
 0.6896548775261236 0.6621298951229276
 0.6889048503042036 0.6742777813491573
 0.689783466850611 0.6701074794039578
 0.6897638936470144 0.6881120906603108
 0.6895562003832131 0.6891726434822211
 0.6897301021479731 0.6675782184345672
 0.6900992260661921 0.6957442621530824
 0.6889400436604535 0.677354806832858
 0.6898677920439803 0.674191219850371
 0.6899086275664458 0.6827153010476027
 0.6897933169325365 0.6785262151913644
 0.6997164056310066 0.6761951746100977
 0.6867643401351881 0.6591057786662614
 0.6902817881026736 0.6667482291640261
 0.7024104553649294 0.6847323991966402
 0.6993028981266914 0.6702727278061291
 0.702484248218232 0.6679760559516229
 0.6870423800945145 0.6589914795904889
 0.6992678830874387 0.6705298401360046
 0.6869133651046387 0.6766710192910815
 0.6863011859322353 0.6708153990416086
 0.6897256702322204 0.6700251433473287
 0.6867830868228456 0.6722763711663201
 0.6868912811274855 0.6876023121475342
 0.6862890337883437 0.6773059046799831
 0.6870145090747696 0.6954052580438825
 0.6866363925955079 0.6771183432872011
 0.6871051263369007 0.6604525148449133
 0.6988775902628662 0.6953925939308352
 0.6871024592707423 0.680074705249519
 0.6993021578685913 0.6752037333548075
 0.6991175989171007 0.6825590977213847
 0.6868454544020771 0.6779211226034605
 0.7025515320125236 0.6545969514804958
 0.699424062057002 0.6954210425263067
 0.6983952399408023 0.6736974190782093
 0.6992576696130619 0.6703546406749342
 0.6827191105811966 0.6756764964173657
 0.6855582155997073 0.6662221324633714
 0.6897761638162148 0.6720005747016283
 0.6996723888712836 0.6539426287628014
 0.6997215524344592 0.6660388919765975
 0.6872681068430914 0.6764347618235763
 0.6995645190876794 0.6631739884308346
 0.6994418104887832 0.6931043178946766
 0.6867125730939365 0.6726129026587725
 0.6843956048393468 0.679128981047677
 0.6996270393816247 0.6633849413128207
 0.6871546619197949 0.6702556134598573
 0.6857686454521047 0.657265086135329
 0.6995830226692512 0.661750626486306
 0.6955803839163607 0.6593499063024292
 0.6991370675560906 0.6861704921092875
 0.6994287428769007 0.6466751648076768
 0.6982084147323609 0.6809384602262124
 0.6949821693332233 0.665288461124976
 0.6985494174673945 0.6729330273067143
 0.6967675788628714 0.6893549815544454
 0.6987350687165471 0.6562606499454032
 0.6982843751773407 0.6807993332569851
 0.6993950090150437 0.6606902420988549
 0.6867509233023587 0.6911353571535307
 0.6997164056310066 0.6635186004815207
 0.699798866693439 0.6672294954476873
 0.6983057548130245 0.6476567726181285
 0.6995159772568016 0.6588272632657645
 0.6997059361065662 0.6774603116572787
 0.6992018905577133 0.6519210463734143
 0.6994099421604553 0.6740816153509711
 0.6996216882010495 0.6560560533515375
 0.697758301695271 0.6712973028877119
 0.6995018556775425 0.6932740404386458
 0.6987261073604177 0.6720351454564563
 0.6987608588812479 0.6856053113332763
 0.6867302587954388 0.6897544838929358
 0.6997383650115038 0.6620564621409294
 0.6993860333383504 0.6833765421118764
 0.6990450512586136 0.6792433486186108
 0.6991893803964288 0.6942012494777329
 0.6993159527747456 0.6619968642989943
 0.6996484358531955 0.674773448751114
 0.6994361048931681 0.6798603367183059
 0.6867738988561677 0.6517519195221489
 0.6988339536412523 0.6683976719144463
 0.6996558309560036 0.6638057731235808
 0.6996443398593168 0.6647811175675661
 0.6986542964009911 0.6759182541264375
 0.6997363695670412 0.654987254051408
 0.686023335281567 0.6596347050942373
 0.6987203821105169 0.6574075778178353
 0.6993509102695896 0.6708208383418336
 0.6996747446554068 0.6643005003050978
 0.6991681885311465 0.6605727838982426
 0.698371381527263 0.6565519559430447
 0.6973350425168777 0.6776772222532864
 0.6997164056310066 0.6514942426846489
 0.6989235846706727 0.6458134066593437
 0.6993953696206279 0.670142964142514
 0.7026067097316157 0.6737409209596229
 0.6988702319273382 0.6645747512901496
 0.6996289519468555 0.649157952374562
 0.6990307196459726 0.6707532625987489
 0.6984662862208592 0.6669866488697719
 0.699406478516219 0.6962350627658261
 0.6992980209067596 0.6961332281689002
 0.699121759327376 0.6894651016887808
 0.6996513174051412 0.6923017148578071
 0.6985597640940526 0.6923934233172946
 0.699595328763031 0.6922592994574285
 0.6867167435025094 0.6963046276159078
 0.6996698587820813 0.685349025800117
 0.6990082408844106 0.6893909432155224
 0.6868541701469585 0.6889738081451208
 0.6997164056310066 0.6914663202534094
 0.6992189233021384 0.6886238735716582
 0.6992451255378995 0.6924186489989633
 0.6989065353202255 0.6883612809277923
 0.6978305297466091 0.6865714012701741
 0.7020628408325764 0.6891504961422384
 0.6990300481211975 0.6950314666680678
 0.6821588753788709 0.6942337056412139
 0.699104875712346 0.6887923876255161
 0.6990592575193182 0.692325598561638
 0.6997204184319116 0.6902032819140926
 0.6949691769566975 0.6893318978640547
 0.6984141391794731 0.6923707815634544
 0.685656058681819 0.6929538539074621
 0.6863736659355303 0.6921919590546948
 0.6992032391833363 0.6932910905791354
 0.6995283838126396 0.6852713774158002
 0.6997164056310066 0.6886738146719328
 0.6991872480508595 0.6887384403941145
 0.6997527999747249 0.6860523736043603
 0.6997169761632309 0.6923545570390349
 0.6867431140729029 0.6907982306309891
 0.6997259065088164 0.6868343756790767
 0.6996578121636476 0.6903008647374677
 0.6997164056310066 0.6889660388419946
 0.6997645422540232 0.6917760889152705
 0.6997001247297358 0.6967082465835371
 0.6997392777619219 0.6899887970374975
 0.6997164056310066 0.6887260499660963
 0.6996617137943014 0.6847745540137096
 0.6983952867339085 0.694857071138589
 0.6996910524655419 0.6947526537397929
 0.6992805774370792 0.6850584081290142
 0.6997285664743166 0.6907496194576784
 0.6991467506682815 0.6910618688526007
 0.6995500903453463 0.689696888447319
 0.6982511690664787 0.6892333095656608
 0.6997164056310066 0.6867194128022626
 0.699337135743806 0.6875168577343006
 0.6997164056310066 0.6952224419412026
 0.6997164056310066 0.6910090643963657
 0.6996390800870794 0.6847942341676762
 0.6993489571428662 0.6847942341676762
 0.6995321333143316 0.6847942341676762
 0.6996774205345645 0.6847942341676762
 0.699722220811996 0.6847942341676762
 0.6994805116279377 0.6847942341676762
 0.6994435268219302 0.6847942341676762
 0.699658813792295 0.6847942341676762
 0.6997164056310066 0.6847942341676762
 0.6996775733798043 0.6847942341676762
 0.6983161718239289 0.6847942341676762
 0.6997424912505997 0.6847942341676762
 0.6983191238398047 0.6847942341676762
 0.698651062295235 0.6847942341676762
 0.69935926770107 0.6847942341676762
 0.697641582290384 0.6847942341676762
 0.6991630071789933 0.6847942341676762
 0.699250418286877 0.6847942341676762
 0.698836130191467 0.6847942341676762
 0.699047892175761 0.6847942341676762
 0.687035469159642 0.6847942341676762
 0.6997164056310066 0.6847942341676762
 0.6997482872371356 0.6847942341676762
 0.6997200279422756 0.6847942341676762
 0.6996663044787449 0.6847942341676762
 0.6998171593110311 0.6847942341676762
 0.6997308370320167 0.6847942341676762
 0.6993443696563513 0.6847942341676762
 0.6997063318038114 0.6847942341676762
 0.6995401809355787 0.6847942341676762
 0.6994894551773634 0.6847942341676762
 0.6997164056310066 0.6847942341676762
 0.6996999341004672 0.6847942341676762
 0.6994516230269163 0.6847942341676762
 0.6994133164379509 0.6847942341676762
 0.6995788323963853 0.6847942341676762
 0.6998439081484377 0.6847942341676762
 0.6994520447821725 0.6847942341676762
 0.6994632722957778 0.6847942341676762
 0.6991928080135736 0.6847942341676762
 0.6997149819096603 0.6847942341676762
 0.6997478155841562 0.6847942341676762
 0.6997164056310066 0.6847942341676762
 0.6988889464727185 0.6847942341676762
 0.6997164056310066 0.6847942341676762
 0.6996624509242684 0.6847942341676762
 0.699492482104511 0.6847942341676762
 0.6995772404610763 0.6847942341676762
 0.699656036334762 0.6847942341676762
 0.6994075453057965 0.6847942341676762
 0.6997117897558732 0.6847942341676762
 0.6997164056310066 0.6847942341676762
 0.6944320476907039 0.6847942341676762
 0.6996599773269758 0.6847942341676762
 0.6982992194758838 0.6847942341676762
 0.6989678850881561 0.6847942341676762
 0.6930922585145765 0.6847942341676762
 0.6991206426578707 0.6847942341676762
 0.6951493574004783 0.6847942341676762
 0.6993976225324319 0.6847942341676762
 0.6996631601736538 0.6847942341676762
 0.698398979782664 0.6847942341676762
 0.6992854601426862 0.6847942341676762
 0.6971243117279425 0.6847942341676762
 0.6995984235224927 0.6847942341676762
 0.6996247073231765 0.6847942341676762
 0.6995921407527396 0.6847942341676762
 0.6997080663160733 0.6847942341676762
 0.6995542878216692 0.6847942341676762
 0.6996948272378103 0.6847942341676762
 0.6989582377823368 0.6847942341676762
 0.6987666760220744 0.6847942341676762
 0.6983676388425836 0.6847942341676762
 0.6996234716457401 0.6847942341676762
 0.6986821439577791 0.6847942341676762
 0.6991599840548816 0.6847942341676762
 0.6983662365142752 0.6847942341676762
 0.6994848139480055 0.6847942341676762
 0.6987971463650068 0.6847942341676762
 0.6996263774607129 0.6847942341676762
 0.6995513745285302 0.6847942341676762
 0.6988232733722445 0.6847942341676762
 0.6996128242622348 0.6847942341676762
 0.6996979938580117 0.6847942341676762
 0.6997312610092187 0.6847942341676762
 0.6987101867462895 0.6847942341676762
 0.699475064029448 0.6847942341676762
 0.6995854925197573 0.6847942341676762
 0.6997164056310066 0.6847942341676762
 0.6961871282514697 0.6839646062910508
 0.6991888952244708 0.6844087464455205
 0.6997235617930122 0.6840254593548397
 0.6994382298151658 0.6831483363326495
 0.6987206326966847 0.6837587150899637
 0.6997164056310066 0.6838103118842778
 0.6997231610881427 0.6826712586317391
 0.6995052588126514 0.6820470156357089
 0.6993194904414129 0.6838397322594109
 0.6997164056310066 0.6828842507127252
 0.6997164056310066 0.6824485568460589
 0.6996103900282969 0.6829377220038623
 0.6996592218042129 0.682028116125475
 0.698835569422502 0.682605898959168
 0.6996394035719884 0.6835129536939836
 0.6983668700899378 0.6836559032500639
 0.6986037295399355 0.6837770338859126
 0.6992925267972094 0.683914675967587
 0.6997164056310066 0.6829800172821771
 0.6986408958476203 0.6846474549316223
 0.6990948148114594 0.684322366258125
 0.6997249865915313 0.6840896547125614
 0.6996275218168514 0.6817300169037047
 0.6997164056310066 0.6817300169037047
 0.6997164056310066 0.6817300169037047
 0.6997450306350285 0.6817300169037047
 0.6980665384123583 0.6817300169037047
 0.6996261236001199 0.6817300169037047
 0.6996260937768655 0.6817300169037047
 0.699615283323695 0.6817300169037047
 0.6997329556895263 0.6817300169037047
 0.6997270161368566 0.6817300169037047
 0.7027304267078515 0.6817300169037047
 0.6994472581098489 0.6817300169037047
 0.6996986261384447 0.6817300169037047
 0.6991457190958696 0.6817300169037047
 0.6985806791329391 0.6817300169037047
 0.6994120110947655 0.6817300169037047
 0.6995980369098648 0.6817300169037047
 0.6997164056310066 0.6817300169037047
 0.6996880389673662 0.6817300169037047
 0.6994071111490628 0.6817300169037047
 0.6997165858191133 0.6817300169037047
 0.6997178991067738 0.6817300169037047
 0.6995359870947105 0.6817300169037047
 0.6996034774187041 0.6817300169037047
 0.6993710596155239 0.6817300169037047
 0.6993012211168558 0.6817300169037047
 0.6996708039946078 0.6817300169037047
 0.6997164056310066 0.6817300169037047
 0.6994061030187214 0.6817300169037047
 0.6996626087721076 0.6817300169037047
 0.6983431700287276 0.6817300169037047
 0.6994823710534909 0.6817300169037047
 0.6990671524993223 0.6817300169037047
 0.6996813159448176 0.6817300169037047
 0.6991817428755144 0.6817300169037047
 0.6995631680286375 0.6817300169037047
 0.699766417182247 0.6817300169037047
 0.6997164056310066 0.6817300169037047
 0.6995793215392355 0.6817300169037047
 0.6997164056310066 0.6817300169037047
 0.6997347005752496 0.6817300169037047
 0.6997164056310066 0.6817300169037047
 0.6997164056310066 0.6817300169037047
 0.6997100545665584 0.6817300169037047
 0.6997637297666354 0.6817300169037047
 0.6997164056310066 0.6817300169037047
 0.6863582533241387 0.6817300169037047
 0.699704925854342 0.6817300169037047
 0.6868173156261775 0.6817300169037047
 0.6997164056310066 0.6817300169037047
 0.6983908475065203 0.6817300169037047
 0.6997503474981119 0.6817300169037047
 0.6996345934115521 0.6817300169037047
 0.6994325514238338 0.6817300169037047
 0.6995757894315503 0.6817300169037047
 0.6997164056310066 0.6817300169037047
 0.6997571840218252 0.6817300169037047
 0.6872961905067232 0.6817300169037047
 0.6982417778420485 0.6817300169037047
 0.6997164056310066 0.6817300169037047
 0.6997164056310066 0.6817300169037047
 0.6990017295248491 0.6817300169037047
 0.6997436485520708 0.6817300169037047
 0.6994177345926176 0.6817300169037047
 0.6990495293437079 0.6817300169037047
 0.6997164056310066 0.6817300169037047
 0.6982736388288665 0.6817300169037047
 0.6996188445577478 0.6817300169037047
 0.6991885658177768 0.6817300169037047
 0.6993336254318574 0.6817300169037047
 0.6997164056310066 0.6817300169037047
 0.6862166597313248 0.6817300169037047
 0.6857871129370345 0.6817300169037047
 0.6994235421410476 0.6817300169037047
 0.6857591146136456 0.6817300169037047
 0.6994787541220053 0.6817300169037047
 0.6982378035592894 0.6817300169037047
 0.6868615541784343 0.6817300169037047
 0.686718608615612 0.6817300169037047
 0.6994308539186396 0.6817300169037047
 0.6995516852897606 0.6817300169037047
 0.6994841937855956 0.6817300169037047
 0.6992349102079779 0.6817300169037047
 0.6867302587954388 0.6817300169037047
 0.6874813122577318 0.6817300169037047
 0.6996286557754638 0.6817300169037047
 0.6866395113376816 0.6817300169037047
 0.6997243671649653 0.6817300169037047
 0.6994078029783535 0.6817300169037047
 0.6990783020874148 0.6817300169037047
 0.6975947946460412 0.6817300169037047
 0.6994836603463525 0.6817300169037047
 0.6987756124705485 0.6817300169037047
 0.6993563928976292 0.6817300169037047
 0.6985505463194197 0.6817300169037047
 0.6992435220668869 0.6817300169037047
 0.6868195095838836 0.6817300169037047
 0.6997164056310066 0.6817300169037047
 0.6993359857255023 0.6817300169037047
 0.6870746488726645 0.6817300169037047
 0.6994182664290545 0.6817300169037047
 0.6997729904434914 0.6817300169037047
 0.6997420719392294 0.6817300169037047
 0.6997164056310066 0.6817300169037047
 0.6997382727197597 0.6817300169037047
 0.6996578610178735 0.6817300169037047
 0.6996873620843503 0.6817300169037047
 0.6996753550777597 0.6817300169037047
 0.6997024261217604 0.6817300169037047
 0.6995817666212171 0.6817300169037047
 0.699419793353349 0.6817300169037047
 0.6997970116592501 0.6817300169037047
 0.699591300442277 0.6817300169037047
 0.6997164056310066 0.6817300169037047
 0.6983666277100873 0.6817300169037047
 0.699644720635465 0.6817300169037047
 0.6987836438518397 0.6817300169037047
 0.6997164056310066 0.6817300169037047
 0.6997164056310066 0.6817300169037047
 0.6997912455828775 0.6817300169037047
 0.6986701936328491 0.6817300169037047
 0.6997397799243943 0.6817300169037047
 0.699761889401033 0.6817300169037047
 0.6997738493379003 0.6817300169037047
 0.6995161367477797 0.6817300169037047
 0.699441972128927 0.6817300169037047
 0.6997164056310066 0.6817300169037047
 0.6995075907220419 0.6817300169037047
 0.6996409123094209 0.6817300169037047
 0.6985730579026169 0.6817300169037047
 0.6997121441034342 0.6817300169037047
 0.6989363980981138 0.6817300169037047
 0.6995214133893244 0.6817300169037047
 0.6985763217345876 0.6817300169037047
 0.6997558265163818 0.6817300169037047
 0.6993533086819702 0.6817300169037047
 0.697869560018192 0.6817300169037047
 0.6997381151283323 0.6817300169037047
 0.6982015443172105 0.6817300169037047
 0.6996761581635275 0.6817300169037047
 0.6997164056310066 0.6817300169037047
 0.6873828314477263 0.6817300169037047
 0.6977605258318186 0.6817300169037047
 0.6867101832051234 0.6817300169037047
 0.6989471229928569 0.6817300169037047
 0.6992591878997422 0.6817300169037047
 0.6997240383953313 0.6817300169037047
 0.6996107427603006 0.6817300169037047
 0.6997164056310066 0.6817300169037047
 0.6997031137837041 0.6817300169037047
 0.6997164056310066 0.6817300169037047
 0.6996806108014251 0.6817300169037047
 0.6989318148181271 0.6817300169037047
 0.6862570919762151 0.6817300169037047
 0.6996998918332473 0.6817300169037047
 0.6996883980662671 0.6817300169037047
 0.6996970962037604 0.6817300169037047
 0.6980737663397313 0.6817300169037047
 0.6994969458405434 0.6817300169037047
 0.6993538543699156 0.6817300169037047
 0.6995208874235063 0.6817300169037047
 0.6997191949707963 0.6817300169037047
 0.6997164056310066 0.6817300169037047
 0.6997164056310066 0.6817300169037047
 0.6988267399419753 0.6817300169037047
 0.6984597230093655 0.6817300169037047
 0.6995735436816679 0.6817300169037047
 0.6996392593996438 0.6817300169037047
 0.6854893638462122 0.6817300169037047
 0.6993202674670932 0.6817300169037047
 0.6997217258096343 0.6817300169037047
 0.6997387033748879 0.6817300169037047
 0.6998544122021852 0.6817300169037047
 0.6986117518380991 0.6817300169037047
 0.6991490409371416 0.6817300169037047
 0.6997164056310066 0.6817300169037047
 0.6871956711691208 0.6817300169037047
 0.699586159537117 0.6817300169037047
 0.6870292636752036 0.6817300169037047
 0.69912601169213 0.6817300169037047
 0.6993704322017439 0.6817300169037047
 0.6996918159991461 0.6817300169037047
 0.6993562972024698 0.6817300169037047
 0.6993411010425521 0.6817300169037047
 0.6995926928810797 0.6817300169037047
 0.6996631465917152 0.6817300169037047
 0.6994386086320477 0.6817300169037047
 0.6996698775037354 0.6817300169037047
 0.6997244379038592 0.6817300169037047
 0.6997164056310066 0.6817300169037047
 0.6995479445447912 0.6817300169037047
 0.6977712745056293 0.6817300169037047
 0.6991274883171816 0.6817300169037047
 0.6991946961755634 0.6817300169037047
 0.6995720848095931 0.6817300169037047
 0.6997164056310066 0.6817300169037047
 0.6997164056310066 0.6817300169037047
 0.6996865477802499 0.6817300169037047
 0.6997164056310066 0.6817300169037047
 0.6997164056310066 0.6817300169037047
 0.6996034006590999 0.6817300169037047
 0.6997164056310066 0.6817300169037047
 0.7027576350651951 0.6817300169037047
 0.6997302402363041 0.6817300169037047
 0.6997224965493518 0.6817300169037047
 0.6990375632582285 0.6817300169037047
 0.6989998630469466 0.6817300169037047
 0.6997164056310066 0.6817300169037047
 0.6996939316326467 0.6817300169037047
 0.6997164056310066 0.6817300169037047
 0.6994324710198467 0.6817300169037047
 0.6997164056310066 0.6817300169037047
 0.7027418839663893 0.6817300169037047
 0.6991273077905733 0.6817300169037047
 0.6996910168944318 0.6817300169037047
 0.6996381249467521 0.6817300169037047
 0.6997177505397859 0.6817300169037047
 0.699781052658254 0.6817300169037047
 0.6994770511294932 0.6817300169037047
 0.6992839335715291 0.6817300169037047
 0.6996776502136891 0.6817300169037047
 0.6996108267369419 0.6817300169037047
 0.6997191764762569 0.6817300169037047
 0.6981448686278413 0.6817300169037047
 0.6995530186554947 0.6817300169037047
 0.6997167089341684 0.6817300169037047
 0.6996985807375992 0.6817300169037047
 0.6997164056310066 0.6817300169037047
 0.6985583119145897 0.6817300169037047
 0.6997164056310066 0.6817300169037047
 0.694952460364954 0.6817300169037047
 0.6983711585598883 0.6817300169037047
 0.6997067325080744 0.6817300169037047
 0.6975931338064462 0.6817300169037047
 0.6995555198491742 0.6817300169037047
 0.6995326291934266 0.6817300169037047
 0.6870164695635629 0.6817300169037047
 0.699615979781553 0.6817300169037047
 0.6994099192889737 0.6817300169037047
 0.6996842593945958 0.6817300169037047
 0.6979094380338511 0.6817300169037047
 0.6997164056310066 0.6817300169037047
 0.6993847146697675 0.6817300169037047
 0.6997138555834429 0.6817300169037047
 0.6996938638132152 0.6817300169037047
 0.6991533372614984 0.6817300169037047
 0.6976897864337126 0.6817300169037047
 0.6996343001155011 0.6817300169037047
 0.6996180535894735 0.6817300169037047
 0.6996403277354414 0.6817300169037047
 0.6995362553495373 0.6817300169037047
 0.6996472019068096 0.6817300169037047
 0.6997546125823394 0.6817300169037047
 0.6997164056310066 0.6817300169037047
 0.6993240789917949 0.6817300169037047
 0.6867520363839991 0.6817300169037047
 0.6996868665164899 0.6817300169037047
 0.6997164056310066 0.6817300169037047
 0.699196611689386 0.6817300169037047
 0.6997241773727407 0.6817300169037047
 0.6984292859055728 0.6817300169037047
 0.6996036494800212 0.6817300169037047
 0.6990422403344622 0.6817300169037047
 0.6981666027652385 0.6817300169037047
 0.6997101327760399 0.6817300169037047
 0.6990686790718991 0.6817300169037047
 0.6996552704510172 0.6817300169037047
 0.7027149984680817 0.6817300169037047
 0.6997389854393862 0.6817300169037047
 0.6997204205892374 0.6817300169037047
 0.6986713548103082 0.6817300169037047
 0.6965198934919072 0.6817300169037047
 0.6981721323109341 0.6817300169037047
 0.6994633102456563 0.6817300169037047
 0.6997131400989354 0.6817300169037047
 0.6996452497913233 0.6817300169037047
 0.6997036846820585 0.6817300169037047
 0.699218310018148 0.6817300169037047
 0.6996942957990735 0.6817300169037047
 0.6997166606230421 0.6817300169037047
 0.6997164056310066 0.6817300169037047
 0.6988668506070247 0.6817300169037047
 0.6994325397413077 0.6817300169037047
 0.6994717610945914 0.6817300169037047
 0.6996822721882775 0.6817300169037047
 0.6989118868634971 0.6817300169037047
 0.6950511042964862 0.6817300169037047
 0.6994046150887283 0.6817300169037047
 0.699709865708419 0.6817300169037047
 0.6997030298797952 0.6817300169037047
 0.6992264823664057 0.6817300169037047
 0.6950428407481347 0.6817300169037047
 0.6943007473420112 0.6817300169037047
 0.6997152224318987 0.6817300169037047
 0.6996376523117712 0.6817300169037047
 0.6947204681953412 0.6817300169037047
 0.6978141975715925 0.6817300169037047
 0.6997539008434398 0.6817300169037047
 0.6994025446469834 0.6817300169037047
 0.6997164056310066 0.6817300169037047
 0.6939641024304081 0.6817300169037047
 0.6991307197898512 0.6817300169037047
 0.6997513211933791 0.6817300169037047
 0.699693510041057 0.6817300169037047
 0.6997164056310066 0.6817300169037047
 0.6996945862061117 0.6817300169037047
 0.6996456805515484 0.6817300169037047
 0.6983810210591012 0.6817300169037047
 0.6995396865766335 0.6817300169037047
 0.698787786943715 0.6817300169037047
 0.6997164056310066 0.6817300169037047
 0.694952460364954 0.6817300169037047
 0.6991508512189722 0.6817300169037047
 0.6996336942969819 0.6817300169037047
 0.6997068355740336 0.6817300169037047
 0.6949544962892693 0.6817300169037047
 0.6949578672701893 0.6817300169037047
 0.6947440447956471 0.6817300169037047
 0.6997382104955144 0.6817300169037047
 0.6997114081294648 0.6817300169037047
 0.6997164056310066 0.6817300169037047
 0.6996556770693002 0.6817300169037047
 0.6983680781978806 0.6817300169037047
 0.6995621325200322 0.6817300169037047
 0.698186868448807 0.6817300169037047
 0.6993461920142946 0.6817300169037047
 0.6993864088617292 0.6817300169037047
 0.6950071850340865 0.6817300169037047
 0.6979399166731838 0.6817300169037047
 0.6997164056310066 0.6817300169037047
 0.6994655856983298 0.6817300169037047
 0.6947379256000599 0.6817300169037047
 0.6996406850657882 0.6817300169037047
 0.6995887342617484 0.6817300169037047
 0.6996812727855666 0.6817300169037047
 0.6996750619100738 0.6817300169037047
 0.6991263620030072 0.6817300169037047
 0.6997598230748245 0.6817300169037047
 0.6997065868254218 0.6817300169037047
 0.6997164056310066 0.6817300169037047
 0.6992459218043495 0.6817300169037047
 0.6997164056310066 0.6817300169037047
 0.6997164056310066 0.6817300169037047
 0.6982226424604737 0.6817300169037047
 0.6997119156542008 0.6817300169037047
 0.6990310256568347 0.6817300169037047
 0.6981960307065663 0.6817300169037047
 0.6993722826005333 0.6817300169037047
 0.7027604508969018 0.6817300169037047
 0.6997164056310066 0.6817300169037047
 0.6988361371376014 0.6817300169037047
 0.6946878886266299 0.6817300169037047
 0.6996038183197663 0.6817300169037047
 0.6949807132833032 0.6817300169037047
 0.6996989730152696 0.6817300169037047
 0.7025772417245594 0.6817300169037047
 0.6994742125359951 0.6817300169037047
 0.7027169162289699 0.6817300169037047
 0.7026735102728591 0.6817300169037047
 0.6992802152894257 0.6817300169037047
 0.6994586546474046 0.6817300169037047
 0.6996521095821223 0.6817300169037047
 0.6904058274352259 0.6817300169037047
 0.697403248565004 0.6817300169037047
 0.6994154904799935 0.6817300169037047
 0.6949827235726087 0.6817300169037047
 0.6983808035257615 0.6817300169037047
 0.7019204287940163 0.6817300169037047
 0.6995234438152191 0.6817300169037047
 0.7025362325549183 0.6817300169037047
 0.6995974590638052 0.6817300169037047
 0.6989473836472946 0.6817300169037047
 0.7026892966280983 0.6817300169037047
 0.6948635622198336 0.6817300169037047
 0.6997050287724718 0.6817300169037047
 0.69950234120113 0.6817300169037047
 0.6978560649880625 0.6817300169037047
 0.7027275938362854 0.6817300169037047
 0.6996300948076715 0.6817300169037047
 0.6971038334132328 0.6817300169037047
 0.6950511973736492 0.6817300169037047
 0.7017567173945822 0.6817300169037047
 0.6950876995221739 0.6817300169037047
 0.6997812469610298 0.6817300169037047
 0.6930994031549856 0.6817300169037047
 0.6997164056310066 0.6817300169037047
 0.6991563640248408 0.6817300169037047
 0.6944963413775865 0.6817300169037047
 0.7026811338699859 0.6817300169037047
 0.6992220267211375 0.6817300169037047
 0.6983718795940294 0.6817300169037047
 0.699711841440023 0.6817300169037047
 0.702676413515769 0.6817300169037047
 0.6980072800176844 0.6817300169037047