# Created by Octave 4.0.0, Wed May 09 14:44:57 2018 CEST <olethros@olethros-OptiPlex-9010>
# name: results
# type: struct
# ndims: 2
 1 5
# length: 8
# name: options
# type: cell
# rows: 1
# columns: 5
# name: <cell-element>
# type: scalar struct
# ndims: 2
 1 1
# length: 8
# name: A
# type: scalar
2


# name: X
# type: scalar
8


# name: Y
# type: scalar
2


# name: Z
# type: scalar
2


# name: lambda
# type: scalar
0


# name: n_iter
# type: scalar
10000


# name: horizon
# type: scalar
1000


# name: n_samples
# type: scalar
1





# name: <cell-element>
# type: scalar struct
# ndims: 2
 1 1
# length: 8
# name: A
# type: scalar
2


# name: X
# type: scalar
8


# name: Y
# type: scalar
2


# name: Z
# type: scalar
2


# name: lambda
# type: scalar
0.25


# name: n_iter
# type: scalar
10000


# name: horizon
# type: scalar
1000


# name: n_samples
# type: scalar
1





# name: <cell-element>
# type: scalar struct
# ndims: 2
 1 1
# length: 8
# name: A
# type: scalar
2


# name: X
# type: scalar
8


# name: Y
# type: scalar
2


# name: Z
# type: scalar
2


# name: lambda
# type: scalar
0.5


# name: n_iter
# type: scalar
10000


# name: horizon
# type: scalar
1000


# name: n_samples
# type: scalar
1





# name: <cell-element>
# type: scalar struct
# ndims: 2
 1 1
# length: 8
# name: A
# type: scalar
2


# name: X
# type: scalar
8


# name: Y
# type: scalar
2


# name: Z
# type: scalar
2


# name: lambda
# type: scalar
0.75


# name: n_iter
# type: scalar
10000


# name: horizon
# type: scalar
1000


# name: n_samples
# type: scalar
1





# name: <cell-element>
# type: scalar struct
# ndims: 2
 1 1
# length: 8
# name: A
# type: scalar
2


# name: X
# type: scalar
8


# name: Y
# type: scalar
2


# name: Z
# type: scalar
2


# name: lambda
# type: scalar
1


# name: n_iter
# type: scalar
10000


# name: horizon
# type: scalar
1000


# name: n_samples
# type: scalar
1







# name: PU
# type: cell
# rows: 1
# columns: 5
# name: <cell-element>
# type: matrix
# rows: 1000
# columns: 2
 0.6156408191241066 0.4787042903530759
 0.416602616525465 0.431851664717006
 0.440861803637789 0.3933373912590014
 0.3673946941675844 0.4391797250981161
 0.4133547574254759 0.4434669012418905
 0.44057155998478 0.3868761514566412
 0.3907559281736281 0.4127087005543394
 0.3193024073829832 0.5108406202841984
 0.6334998800814904 0.4960125969080126
 0.6878878642026582 0.5172159117787641
 0.5792322275226512 0.5021640238627805
 0.5077787067320063 0.5184233349321432
 0.4340431313161852 0.4999130104240386
 0.4312613856005387 0.5318466523487708
 0.4851798774801586 0.4504798209852529
 0.4851798774801586 0.4918004054597206
 0.5074884630789973 0.4663933244736677
 0.4851798774801586 0.5043236447153167
 0.5120608153890132 0.5046557868497379
 0.490255510425072 0.5425966473995782
 0.4328760865330893 0.5388870515963938
 0.4627484642127589 0.5162215583406292
 0.490255510425072 0.5322230329830071
 0.529919876346397 0.5450345034846691
 0.6377819887384972 0.5010613521196789
 0.490255510425072 0.5341766497765618
 0.5395678616013263 0.541990586859441
 0.490255510425072 0.5207165759559909
 0.4678240971576723 0.5335741998379364
 0.4859734017680651 0.5261866452980505
 0.5344922286564129 0.5551112944665827
 0.529919876346397 0.5589295992721572
 0.490255510425072 0.539639201178577
 0.6825219876047357 0.5647315282300885
 0.5349955092913105 0.5747940092603698
 0.6825219876047357 0.5686136247069419
 0.5618764472001652 0.5814849784459662
 0.5618764472001652 0.5536690200332908
 0.6825219876047357 0.558316906623833
 0.6600905743373361 0.555184299170348
 0.6334998800814904 0.5497729308854622
 0.529919876346397 0.5750462097216513
 0.6875976205496492 0.5510733876572966
 0.6385755130264039 0.5843078604675648
 0.5352857529443195 0.5843078604675648
 0.5618764472001652 0.5843078604675648
 0.5792322275226512 0.5843078604675648
 0.5843078604675648 0.5843078604675648
 0.73183433878099 0.5843078604675648
 0.5568008142552516 0.5843078604675648
 0.5792322275226512 0.5843078604675648
 0.6600905743373361 0.5843078604675648
 0.5843078604675648 0.5843078604675648
 0.7369099717259036 0.5843078604675648
 0.5843078604675648 0.5843078604675648
 0.6651662072822496 0.5843078604675648
 0.7369099717259036 0.5843078604675648
 0.6825219876047357 0.5843078604675648
 0.7369099717259036 0.5843078604675648
 0.6334998800814904 0.5843078604675648
 0.7369099717259036 0.5843078604675648
 0.6600905743373361 0.5843078604675648
 0.7369099717259036 0.5843078604675648
 0.6878878642026582 0.5843078604675648
 0.5843078604675648 0.5843078604675648
 0.6875976205496492 0.5843078604675648
 0.6825219876047357 0.5843078604675648
 0.6385755130264039 0.5843078604675648
 0.7094029255135904 0.5843078604675648
 0.5792322275226512 0.5843078604675648
 0.6828122312577447 0.5843078604675648
 0.7351737042489901 0.5843078604675648
 0.5792322275226512 0.5843078604675648
 0.6161440997590043 0.5843078604675648
 0.6878878642026582 0.5843078604675648
 0.5843078604675648 0.5843078604675648
 0.5843078604675648 0.5843078604675648
 0.5120608153890132 0.5843078604675648
 0.692169972859665 0.5843078604675648
 0.529919876346397 0.5843078604675648
 0.5843078604675648 0.5843078604675648
 0.5618764472001652 0.5843078604675648
 0.7369099717259036 0.5843078604675648
 0.6651662072822496 0.5843078604675648
 0.490545754078081 0.5843078604675648
 0.6878878642026582 0.5843078604675648
 0.7144785584585039 0.5843078604675648
 0.5843078604675648 0.5843078604675648
 0.6875976205496492 0.5843078604675648
 0.6374103894744596 0.5843078604675648
 0.6878878642026582 0.5843078604675648
 0.73183433878099 0.5843078604675648
 0.73183433878099 0.5843078604675648
 0.5843078604675648 0.5843078604675648
 0.5230198484137646 0.5843078604675648
 0.4790733738354327 0.5843078604675648
 0.7369099717259036 0.5843078604675648
 0.7369099717259036 0.5843078604675648
 0.73183433878099 0.5843078604675648
 0.6806975926170167 0.5843078604675648
 0.6265998521488579 0.5843078604675648
 0.7369099717259036 0.5843078604675648
 0.528095481358678 0.5843078604675648
 0.6806975926170167 0.5843078604675648
 0.6825219876047357 0.5843078604675648
 0.7369099717259036 0.5843078604675648
 0.6806975926170167 0.5843078604675648
 0.6875976205496492 0.5843078604675648
 0.4787831301824237 0.5843078604675648
 0.5230198484137646 0.5843078604675648
 0.6428576216834107 0.5843078604675648
 0.7369099717259036 0.5843078604675648
 0.6825219876047357 0.5843078604675648
 0.6651662072822496 0.5843078604675648
 0.6806975926170167 0.5843078604675648
 0.5866452425745239 0.5843078604675648
 0.7369099717259036 0.5843078604675648
 0.6878878642026582 0.5843078604675648
 0.73183433878099 0.5843078604675648
 0.6756219596721033 0.5843078604675648
 0.6825219876047357 0.5843078604675648
 0.5792322275226512 0.5843078604675648
 0.5349955092913105 0.5843078604675648
 0.692169972859665 0.5843078604675648
 0.5792322275226512 0.5843078604675648
 0.6265998521488579 0.5843078604675648
 0.6825219876047357 0.5843078604675648
 0.73183433878099 0.5843078604675648
 0.7369099717259036 0.5843078604675648
 0.6828122312577447 0.5843078604675648
 0.7369099717259036 0.5843078604675648
 0.73183433878099 0.5843078604675648
 0.6825219876047357 0.5843078604675648
 0.6825219876047357 0.5843078604675648
 0.6756219596721033 0.5843078604675648
 0.6870943399147516 0.5843078604675648
 0.7094029255135904 0.5843078604675648
 0.6806975926170167 0.5843078604675648
 0.73183433878099 0.5843078604675648
 0.6263096084958489 0.5843078604675648
 0.73183433878099 0.5843078604675648
 0.73183433878099 0.5843078604675648
 0.6828122312577447 0.5843078604675648
 0.73183433878099 0.5843078604675648
 0.73183433878099 0.5843078604675648
 0.6828122312577447 0.5843078604675648
 0.73183433878099 0.5843078604675648
 0.6265998521488579 0.5843078604675648
 0.7369099717259036 0.5843078604675648
 0.73183433878099 0.5843078604675648
 0.6828122312577447 0.5843078604675648
 0.73183433878099 0.5843078604675648
 0.73183433878099 0.5843078604675648
 0.73183433878099 0.5843078604675648
 0.6870943399147516 0.5843078604675648
 0.73183433878099 0.5843078604675648
 0.73183433878099 0.5843078604675648
 0.73183433878099 0.5843078604675648
 0.6828122312577447 0.5843078604675648
 0.73183433878099 0.5843078604675648
 0.73183433878099 0.5843078604675648
 0.73183433878099 0.5843078604675648
 0.6828122312577447 0.5843078604675648
 0.73183433878099 0.5843078604675648
 0.73183433878099 0.5843078604675648
 0.73183433878099 0.5843078604675648
 0.6828122312577447 0.5843078604675648
 0.73183433878099 0.5843078604675648
 0.6825219876047357 0.5843078604675648
 0.6756219596721033 0.5843078604675648
 0.6756219596721033 0.5843078604675648
 0.73183433878099 0.5843078604675648
 0.6828122312577447 0.5843078604675648
 0.73183433878099 0.5843078604675648
 0.7369099717259036 0.5843078604675648
 0.6878878642026582 0.5843078604675648
 0.7369099717259036 0.5843078604675648
 0.6828122312577447 0.5843078604675648
 0.7369099717259036 0.5843078604675648
 0.6825219876047357 0.5843078604675648
 0.73183433878099 0.5843078604675648
 0.73183433878099 0.5843078604675648
 0.6825219876047357 0.5843078604675648
 0.6870943399147516 0.5843078604675648
 0.7369099717259036 0.5843078604675648
 0.6828122312577447 0.5843078604675648
 0.7094029255135904 0.5843078604675648
 0.6377819887384972 0.5843078604675648
 0.6431478653364197 0.5843078604675648
 0.73183433878099 0.5843078604675648
 0.6828122312577447 0.5843078604675648
 0.6878878642026582 0.5843078604675648
 0.6316754850937715 0.5843078604675648
 0.7369099717259036 0.5843078604675648
 0.73183433878099 0.5843078604675648
 0.6828122312577447 0.5843078604675648
 0.6756219596721033 0.5843078604675648
 0.6878878642026582 0.5843078604675648
 0.73183433878099 0.5843078604675648
 0.7369099717259036 0.5843078604675648
 0.7369099717259036 0.5843078604675648
 0.73183433878099 0.5843078604675648
 0.73183433878099 0.5843078604675648
 0.73183433878099 0.5843078604675648
 0.73183433878099 0.5843078604675648
 0.7369099717259036 0.5843078604675648
 0.7369099717259036 0.5843078604675648
 0.7369099717259036 0.5843078604675648
 0.73183433878099 0.5843078604675648
 0.73183433878099 0.5843078604675648
 0.73183433878099 0.5843078604675648
 0.7369099717259036 0.5843078604675648
 0.7369099717259036 0.5843078604675648
 0.6756219596721033 0.5843078604675648
 0.6870943399147516 0.5843078604675648
 0.6756219596721033 0.5843078604675648
 0.73183433878099 0.5843078604675648
 0.692169972859665 0.5843078604675648
 0.73183433878099 0.5843078604675648
 0.73183433878099 0.5843078604675648
 0.7369099717259036 0.5843078604675648
 0.6828122312577447 0.5843078604675648
 0.7369099717259036 0.5843078604675648
 0.73183433878099 0.5843078604675648
 0.6385755130264039 0.5843078604675648
 0.7369099717259036 0.5843078604675648
 0.7369099717259036 0.5843078604675648
 0.73183433878099 0.5843078604675648
 0.73183433878099 0.5843078604675648
 0.6825219876047357 0.5843078604675648
 0.6828122312577447 0.5843078604675648
 0.73183433878099 0.5843078604675648
 0.6828122312577447 0.5843078604675648
 0.6870943399147516 0.5843078604675648
 0.6828122312577447 0.5843078604675648
 0.73183433878099 0.5843078604675648
 0.73183433878099 0.5843078604675648
 0.73183433878099 0.5843078604675648
 0.73183433878099 0.5843078604675648
 0.73183433878099 0.5843078604675648
 0.7369099717259036 0.5843078604675648
 0.73183433878099 0.5843078604675648
 0.73183433878099 0.5843078604675648
 0.7094029255135904 0.5843078604675648
 0.73183433878099 0.5843078604675648
 0.73183433878099 0.5843078604675648
 0.73183433878099 0.5843078604675648
 0.73183433878099 0.5843078604675648
 0.7369099717259036 0.5843078604675648
 0.73183433878099 0.5843078604675648
 0.7369099717259036 0.5843078604675648
 0.7094029255135904 0.5843078604675648
 0.73183433878099 0.5843078604675648
 0.73183433878099 0.5843078604675648
 0.73183433878099 0.5843078604675648
 0.7369099717259036 0.5843078604675648
 0.73183433878099 0.5843078604675648
 0.73183433878099 0.5843078604675648
 0.6878878642026582 0.5843078604675648
 0.73183433878099 0.5843078604675648
 0.73183433878099 0.5843078604675648
 0.7369099717259036 0.5843078604675648
 0.73183433878099 0.5843078604675648
 0.6756219596721033 0.5843078604675648
 0.7369099717259036 0.5843078604675648
 0.7369099717259036 0.5843078604675648
 0.6828122312577447 0.5843078604675648
 0.73183433878099 0.5843078604675648
 0.7369099717259036 0.5843078604675648
 0.692169972859665 0.5843078604675648
 0.6431478653364197 0.5843078604675648
 0.7369099717259036 0.5843078604675648
 0.7369099717259036 0.5843078604675648
 0.73183433878099 0.5843078604675648
 0.7369099717259036 0.5843078604675648
 0.6806975926170167 0.5843078604675648
 0.73183433878099 0.5843078604675648
 0.6265998521488579 0.5843078604675648
 0.6828122312577447 0.5843078604675648
 0.6789136971466996 0.5843078604675648
 0.6756219596721033 0.5843078604675648
 0.7369099717259036 0.5843078604675648
 0.73183433878099 0.5843078604675648
 0.6756219596721033 0.5843078604675648
 0.73183433878099 0.5843078604675648
 0.7369099717259036 0.5843078604675648
 0.6870943399147516 0.5843078604675648
 0.6878878642026582 0.5843078604675648
 0.73183433878099 0.5843078604675648
 0.6380722323915062 0.5843078604675648
 0.6828122312577447 0.5843078604675648
 0.6828122312577447 0.5843078604675648
 0.6308819608058648 0.5843078604675648
 0.5818598532826195 0.5843078604675648
 0.73183433878099 0.5843078604675648
 0.6756219596721033 0.5843078604675648
 0.6385755130264039 0.5843078604675648
 0.73183433878099 0.5843078604675648
 0.73183433878099 0.5843078604675648
 0.73183433878099 0.5843078604675648
 0.73183433878099 0.5843078604675648
 0.6600905743373361 0.5843078604675648
 0.6380722323915062 0.5843078604675648
 0.7369099717259036 0.5843078604675648
 0.73183433878099 0.5843078604675648
 0.6878878642026582 0.5843078604675648
 0.7369099717259036 0.5843078604675648
 0.7369099717259036 0.5843078604675648
 0.6828122312577447 0.5843078604675648
 0.7369099717259036 0.5843078604675648
 0.6878878642026582 0.5843078604675648
 0.6806975926170167 0.5843078604675648
 0.7369099717259036 0.5843078604675648
 0.6878878642026582 0.5843078604675648
 0.6825219876047357 0.5843078604675648
 0.6828122312577447 0.5843078604675648
 0.6878878642026582 0.5843078604675648
 0.73183433878099 0.5843078604675648
 0.7369099717259036 0.5843078604675648
 0.6828122312577447 0.5843078604675648
 0.6828122312577447 0.5843078604675648
 0.6334998800814904 0.5843078604675648
 0.6870943399147516 0.5843078604675648
 0.6334998800814904 0.5843078604675648
 0.73183433878099 0.5843078604675648
 0.73183433878099 0.5843078604675648
 0.6806975926170167 0.5843078604675648
 0.7369099717259036 0.5843078604675648
 0.6828122312577447 0.5843078604675648
 0.73183433878099 0.5843078604675648
 0.7369099717259036 0.5843078604675648
 0.7369099717259036 0.5843078604675648
 0.73183433878099 0.5843078604675648
 0.73183433878099 0.5843078604675648
 0.6265998521488579 0.5843078604675648
 0.7369099717259036 0.5843078604675648
 0.73183433878099 0.5843078604675648
 0.73183433878099 0.5843078604675648
 0.6878878642026582 0.5843078604675648
 0.73183433878099 0.5843078604675648
 0.7369099717259036 0.5843078604675648
 0.73183433878099 0.5843078604675648
 0.73183433878099 0.5843078604675648
 0.6806975926170167 0.5843078604675648
 0.6828122312577447 0.5843078604675648
 0.6828122312577447 0.5843078604675648
 0.6878878642026582 0.5843078604675648
 0.73183433878099 0.5843078604675648
 0.7369099717259036 0.5843078604675648
 0.73183433878099 0.5843078604675648
 0.73183433878099 0.5843078604675648
 0.73183433878099 0.5843078604675648
 0.73183433878099 0.5843078604675648
 0.73183433878099 0.5843078604675648
 0.6828122312577447 0.5843078604675648
 0.73183433878099 0.5843078604675648
 0.7369099717259036 0.5843078604675648
 0.6825219876047357 0.5843078604675648
 0.7094029255135904 0.5843078604675648
 0.73183433878099 0.5843078604675648
 0.73183433878099 0.5843078604675648
 0.7369099717259036 0.5843078604675648
 0.7369099717259036 0.5843078604675648
 0.7369099717259036 0.5843078604675648
 0.7369099717259036 0.5843078604675648
 0.73183433878099 0.5843078604675648
 0.7369099717259036 0.5843078604675648
 0.6828122312577447 0.5843078604675648
 0.73183433878099 0.5843078604675648
 0.7369099717259036 0.5843078604675648
 0.73183433878099 0.5843078604675648
 0.6828122312577447 0.5843078604675648
 0.73183433878099 0.5843078604675648
 0.73183433878099 0.5843078604675648
 0.6806975926170167 0.5843078604675648
 0.73183433878099 0.5843078604675648
 0.73183433878099 0.5843078604675648
 0.73183433878099 0.5843078604675648
 0.6870943399147516 0.5843078604675648
 0.73183433878099 0.5843078604675648
 0.7369099717259036 0.5843078604675648
 0.7369099717259036 0.5843078604675648
 0.6828122312577447 0.5843078604675648
 0.7369099717259036 0.5843078604675648
 0.7369099717259036 0.5843078604675648
 0.73183433878099 0.5843078604675648
 0.73183433878099 0.5843078604675648
 0.6806975926170167 0.5843078604675648
 0.73183433878099 0.5843078604675648
 0.7369099717259036 0.5843078604675648
 0.73183433878099 0.5843078604675648
 0.6828122312577447 0.5843078604675648
 0.7369099717259036 0.5843078604675648
 0.6756219596721033 0.5843078604675648
 0.73183433878099 0.5843078604675648
 0.73183433878099 0.5843078604675648
 0.6825219876047357 0.5843078604675648
 0.7369099717259036 0.5843078604675648
 0.73183433878099 0.5843078604675648
 0.7369099717259036 0.5843078604675648
 0.7369099717259036 0.5843078604675648
 0.73183433878099 0.5843078604675648
 0.73183433878099 0.5843078604675648
 0.73183433878099 0.5843078604675648
 0.6828122312577447 0.5843078604675648
 0.73183433878099 0.5843078604675648
 0.7369099717259036 0.5843078604675648
 0.73183433878099 0.5843078604675648
 0.6870943399147516 0.5843078604675648
 0.6878878642026582 0.5843078604675648
 0.73183433878099 0.5843078604675648
 0.73183433878099 0.5843078604675648
 0.73183433878099 0.5843078604675648
 0.6870943399147516 0.5843078604675648
 0.7094029255135904 0.5843078604675648
 0.73183433878099 0.5843078604675648
 0.6828122312577447 0.5843078604675648
 0.6756219596721033 0.5843078604675648
 0.7369099717259036 0.5843078604675648
 0.73183433878099 0.5843078604675648
 0.6875976205496492 0.5843078604675648
 0.73183433878099 0.5843078604675648
 0.7369099717259036 0.5843078604675648
 0.6263096084958489 0.5843078604675648
 0.6878878642026582 0.5843078604675648
 0.7094029255135904 0.5843078604675648
 0.73183433878099 0.5843078604675648
 0.73183433878099 0.5843078604675648
 0.7369099717259036 0.5843078604675648
 0.7369099717259036 0.5843078604675648
 0.7369099717259036 0.5843078604675648
 0.73183433878099 0.5843078604675648
 0.7094029255135904 0.5843078604675648
 0.73183433878099 0.5843078604675648
 0.73183433878099 0.5843078604675648
 0.73183433878099 0.5843078604675648
 0.6875976205496492 0.5843078604675648
 0.7369099717259036 0.5843078604675648
 0.73183433878099 0.5843078604675648
 0.6756219596721033 0.5843078604675648
 0.7369099717259036 0.5843078604675648
 0.7369099717259036 0.5843078604675648
 0.7369099717259036 0.5843078604675648
 0.73183433878099 0.5843078604675648
 0.73183433878099 0.5843078604675648
 0.7369099717259036 0.5843078604675648
 0.7369099717259036 0.5843078604675648
 0.7369099717259036 0.5843078604675648
 0.73183433878099 0.5843078604675648
 0.73183433878099 0.5843078604675648
 0.6828122312577447 0.5843078604675648
 0.692169972859665 0.5843078604675648
 0.7369099717259036 0.5843078604675648
 0.7369099717259036 0.5843078604675648
 0.7369099717259036 0.5843078604675648
 0.7369099717259036 0.5843078604675648
 0.73183433878099 0.5843078604675648
 0.7369099717259036 0.5843078604675648
 0.7369099717259036 0.5843078604675648
 0.73183433878099 0.5843078604675648
 0.73183433878099 0.5843078604675648
 0.6870943399147516 0.5843078604675648
 0.7369099717259036 0.5843078604675648
 0.73183433878099 0.5843078604675648
 0.6756219596721033 0.5843078604675648
 0.73183433878099 0.5843078604675648
 0.73183433878099 0.5843078604675648
 0.6806975926170167 0.5843078604675648
 0.73183433878099 0.5843078604675648
 0.7369099717259036 0.5843078604675648
 0.73183433878099 0.5843078604675648
 0.7369099717259036 0.5843078604675648
 0.73183433878099 0.5843078604675648
 0.7369099717259036 0.5843078604675648
 0.6870943399147516 0.5843078604675648
 0.73183433878099 0.5843078604675648
 0.7369099717259036 0.5843078604675648
 0.73183433878099 0.5843078604675648
 0.73183433878099 0.5843078604675648
 0.7369099717259036 0.5843078604675648
 0.73183433878099 0.5843078604675648
 0.7369099717259036 0.5843078604675648
 0.73183433878099 0.5843078604675648
 0.7369099717259036 0.5843078604675648
 0.73183433878099 0.5843078604675648
 0.7369099717259036 0.5843078604675648
 0.73183433878099 0.5843078604675648
 0.7369099717259036 0.5843078604675648
 0.6875976205496492 0.5843078604675648
 0.7369099717259036 0.5843078604675648
 0.6756219596721033 0.5843078604675648
 0.73183433878099 0.5843078604675648
 0.6875976205496492 0.5843078604675648
 0.73183433878099 0.5843078604675648
 0.73183433878099 0.5843078604675648
 0.7369099717259036 0.5843078604675648
 0.73183433878099 0.5843078604675648
 0.73183433878099 0.5843078604675648
 0.73183433878099 0.5843078604675648
 0.6825219876047357 0.5843078604675648
 0.6756219596721033 0.5843078604675648
 0.7369099717259036 0.5843078604675648
 0.73183433878099 0.5843078604675648
 0.7369099717259036 0.5843078604675648
 0.7369099717259036 0.5843078604675648
 0.73183433878099 0.5843078604675648
 0.7369099717259036 0.5843078604675648
 0.6806975926170167 0.5843078604675648
 0.6334998800814904 0.5843078604675648
 0.73183433878099 0.5843078604675648
 0.6825219876047357 0.5843078604675648
 0.73183433878099 0.5843078604675648
 0.73183433878099 0.5843078604675648
 0.7369099717259036 0.5843078604675648
 0.7369099717259036 0.5843078604675648
 0.6875976205496492 0.5843078604675648
 0.6870943399147516 0.5843078604675648
 0.7369099717259036 0.5843078604675648
 0.73183433878099 0.5843078604675648
 0.6806975926170167 0.5843078604675648
 0.7369099717259036 0.5843078604675648
 0.7369099717259036 0.5843078604675648
 0.73183433878099 0.5843078604675648
 0.7369099717259036 0.5843078604675648
 0.7369099717259036 0.5843078604675648
 0.73183433878099 0.5843078604675648
 0.7369099717259036 0.5843078604675648
 0.7369099717259036 0.5843078604675648
 0.73183433878099 0.5843078604675648
 0.692169972859665 0.5843078604675648
 0.7369099717259036 0.5843078604675648
 0.7369099717259036 0.5843078604675648
 0.73183433878099 0.5843078604675648
 0.7369099717259036 0.5843078604675648
 0.7369099717259036 0.5843078604675648
 0.7369099717259036 0.5843078604675648
 0.73183433878099 0.5843078604675648
 0.6875976205496492 0.5843078604675648
 0.73183433878099 0.5843078604675648
 0.73183433878099 0.5843078604675648
 0.6646629266473519 0.5843078604675648
 0.7369099717259036 0.5843078604675648
 0.7369099717259036 0.5843078604675648
 0.73183433878099 0.5843078604675648
 0.7369099717259036 0.5843078604675648
 0.7369099717259036 0.5843078604675648
 0.73183433878099 0.5843078604675648
 0.7369099717259036 0.5843078604675648
 0.73183433878099 0.5843078604675648
 0.6828122312577447 0.5843078604675648
 0.7369099717259036 0.5843078604675648
 0.73183433878099 0.5843078604675648
 0.73183433878099 0.5843078604675648
 0.7144785584585039 0.5843078604675648
 0.73183433878099 0.5843078604675648
 0.7369099717259036 0.5843078604675648
 0.7369099717259036 0.5843078604675648
 0.73183433878099 0.5843078604675648
 0.73183433878099 0.5843078604675648
 0.73183433878099 0.5843078604675648
 0.7369099717259036 0.5843078604675648
 0.73183433878099 0.5843078604675648
 0.7369099717259036 0.5843078604675648
 0.7369099717259036 0.5843078604675648
 0.7369099717259036 0.5843078604675648
 0.73183433878099 0.5843078604675648
 0.7369099717259036 0.5843078604675648
 0.7369099717259036 0.5843078604675648
 0.73183433878099 0.5843078604675648
 0.73183433878099 0.5843078604675648
 0.73183433878099 0.5843078604675648
 0.6875976205496492 0.5843078604675648
 0.73183433878099 0.5843078604675648
 0.73183433878099 0.5843078604675648
 0.7369099717259036 0.5843078604675648
 0.73183433878099 0.5843078604675648
 0.7369099717259036 0.5843078604675648
 0.73183433878099 0.5843078604675648
 0.73183433878099 0.5843078604675648
 0.7369099717259036 0.5843078604675648
 0.73183433878099 0.5843078604675648
 0.6870943399147516 0.5843078604675648
 0.7369099717259036 0.5843078604675648
 0.73183433878099 0.5843078604675648
 0.73183433878099 0.5843078604675648
 0.7369099717259036 0.5843078604675648
 0.7369099717259036 0.5843078604675648
 0.6825219876047357 0.5843078604675648
 0.7369099717259036 0.5843078604675648
 0.73183433878099 0.5843078604675648
 0.7369099717259036 0.5843078604675648
 0.73183433878099 0.5843078604675648
 0.7369099717259036 0.5843078604675648
 0.73183433878099 0.5843078604675648
 0.692169972859665 0.5843078604675648
 0.7369099717259036 0.5843078604675648
 0.6265998521488579 0.5843078604675648
 0.7369099717259036 0.5843078604675648
 0.73183433878099 0.5843078604675648
 0.7369099717259036 0.5843078604675648
 0.7369099717259036 0.5843078604675648
 0.73183433878099 0.5843078604675648
 0.73183433878099 0.5843078604675648
 0.73183433878099 0.5843078604675648
 0.7369099717259036 0.5843078604675648
 0.73183433878099 0.5843078604675648
 0.7369099717259036 0.5843078604675648
 0.7369099717259036 0.5843078604675648
 0.692169972859665 0.5843078604675648
 0.73183433878099 0.5843078604675648
 0.6380722323915062 0.5843078604675648
 0.73183433878099 0.5843078604675648
 0.73183433878099 0.5843078604675648
 0.7369099717259036 0.5843078604675648
 0.6870943399147516 0.5843078604675648
 0.6870943399147516 0.5843078604675648
 0.6878878642026582 0.5843078604675648
 0.7369099717259036 0.5843078604675648
 0.73183433878099 0.5843078604675648
 0.73183433878099 0.5843078604675648
 0.7369099717259036 0.5843078604675648
 0.73183433878099 0.5843078604675648
 0.7369099717259036 0.5843078604675648
 0.6878878642026582 0.5843078604675648
 0.73183433878099 0.5843078604675648
 0.7369099717259036 0.5843078604675648
 0.73183433878099 0.5843078604675648
 0.7369099717259036 0.5843078604675648
 0.73183433878099 0.5843078604675648
 0.6825219876047357 0.5843078604675648
 0.73183433878099 0.5843078604675648
 0.73183433878099 0.5843078604675648
 0.6870943399147516 0.5843078604675648
 0.73183433878099 0.5843078604675648
 0.7369099717259036 0.5843078604675648
 0.73183433878099 0.5843078604675648
 0.73183433878099 0.5843078604675648
 0.73183433878099 0.5843078604675648
 0.6828122312577447 0.5843078604675648
 0.73183433878099 0.5843078604675648
 0.692169972859665 0.5843078604675648
 0.73183433878099 0.5843078604675648
 0.7369099717259036 0.5843078604675648
 0.73183433878099 0.5843078604675648
 0.73183433878099 0.5843078604675648
 0.73183433878099 0.5843078604675648
 0.73183433878099 0.5843078604675648
 0.73183433878099 0.5843078604675648
 0.73183433878099 0.5843078604675648
 0.73183433878099 0.5843078604675648
 0.7369099717259036 0.5843078604675648
 0.73183433878099 0.5843078604675648
 0.73183433878099 0.5843078604675648
 0.73183433878099 0.5843078604675648
 0.73183433878099 0.5843078604675648
 0.7369099717259036 0.5843078604675648
 0.73183433878099 0.5843078604675648
 0.73183433878099 0.5843078604675648
 0.73183433878099 0.5843078604675648
 0.7369099717259036 0.5843078604675648
 0.73183433878099 0.5843078604675648
 0.7369099717259036 0.5843078604675648
 0.73183433878099 0.5843078604675648
 0.6870943399147516 0.5843078604675648
 0.7369099717259036 0.5843078604675648
 0.73183433878099 0.5843078604675648
 0.7369099717259036 0.5843078604675648
 0.73183433878099 0.5843078604675648
 0.7369099717259036 0.5843078604675648
 0.7369099717259036 0.5843078604675648
 0.6870943399147516 0.5843078604675648
 0.73183433878099 0.5843078604675648
 0.73183433878099 0.5843078604675648
 0.73183433878099 0.5843078604675648
 0.7369099717259036 0.5843078604675648
 0.73183433878099 0.5843078604675648
 0.73183433878099 0.5843078604675648
 0.7369099717259036 0.5843078604675648
 0.7369099717259036 0.5843078604675648
 0.7369099717259036 0.5843078604675648
 0.73183433878099 0.5843078604675648
 0.73183433878099 0.5843078604675648
 0.7369099717259036 0.5843078604675648
 0.6870943399147516 0.5843078604675648
 0.7369099717259036 0.5843078604675648
 0.73183433878099 0.5843078604675648
 0.7369099717259036 0.5843078604675648
 0.73183433878099 0.5843078604675648
 0.73183433878099 0.5843078604675648
 0.73183433878099 0.5843078604675648
 0.6873844114600088 0.5843078604675648
 0.73183433878099 0.5843078604675648
 0.73183433878099 0.5843078604675648
 0.73183433878099 0.5843078604675648
 0.6870943399147516 0.5843078604675648
 0.73183433878099 0.5843078604675648
 0.7369099717259036 0.5843078604675648
 0.73183433878099 0.5843078604675648
 0.73183433878099 0.5843078604675648
 0.7369099717259036 0.5843078604675648
 0.6875976205496492 0.5843078604675648
 0.6428576216834107 0.5843078604675648
 0.7369099717259036 0.5843078604675648
 0.73183433878099 0.5843078604675648
 0.73183433878099 0.5843078604675648
 0.692169972859665 0.5843078604675648
 0.6875976205496492 0.5843078604675648
 0.6825219876047357 0.5843078604675648
 0.73183433878099 0.5843078604675648
 0.7369099717259036 0.5843078604675648
 0.73183433878099 0.5843078604675648
 0.7369099717259036 0.5843078604675648
 0.73183433878099 0.5843078604675648
 0.7369099717259036 0.5843078604675648
 0.7369099717259036 0.5843078604675648
 0.692169972859665 0.5843078604675648
 0.692169972859665 0.5843078604675648
 0.6875976205496492 0.5843078604675648
 0.7369099717259036 0.5843078604675648
 0.7322875092989279 0.5843078604675648
 0.7369099717259036 0.5843078604675648
 0.73183433878099 0.5843078604675648
 0.7369099717259036 0.5843078604675648
 0.73183433878099 0.5843078604675648
 0.7369099717259036 0.5843078604675648
 0.73183433878099 0.5843078604675648
 0.73183433878099 0.5843078604675648
 0.692169972859665 0.5843078604675648
 0.73183433878099 0.5843078604675648
 0.6828122312577447 0.5843078604675648
 0.73183433878099 0.5843078604675648
 0.73183433878099 0.5843078604675648