# Created by Octave 4.0.0, Mon May 14 23:29:04 2018 CEST <olethros@olethros-OptiPlex-9010>
# name: results
# type: struct
# ndims: 2
 1 5
# length: 8
# name: options
# type: cell
# rows: 1
# columns: 5
# name: <cell-element>
# type: scalar struct
# ndims: 2
 1 1
# length: 8
# name: A
# type: scalar
2


# name: X
# type: scalar
8


# name: Y
# type: scalar
2


# name: Z
# type: scalar
2


# name: lambda
# type: scalar
0


# name: n_iter
# type: scalar
10000


# name: horizon
# type: scalar
1000


# name: n_samples
# type: scalar
16





# name: <cell-element>
# type: scalar struct
# ndims: 2
 1 1
# length: 8
# name: A
# type: scalar
2


# name: X
# type: scalar
8


# name: Y
# type: scalar
2


# name: Z
# type: scalar
2


# name: lambda
# type: scalar
0.25


# name: n_iter
# type: scalar
10000


# name: horizon
# type: scalar
1000


# name: n_samples
# type: scalar
16





# name: <cell-element>
# type: scalar struct
# ndims: 2
 1 1
# length: 8
# name: A
# type: scalar
2


# name: X
# type: scalar
8


# name: Y
# type: scalar
2


# name: Z
# type: scalar
2


# name: lambda
# type: scalar
0.5


# name: n_iter
# type: scalar
10000


# name: horizon
# type: scalar
1000


# name: n_samples
# type: scalar
16





# name: <cell-element>
# type: scalar struct
# ndims: 2
 1 1
# length: 8
# name: A
# type: scalar
2


# name: X
# type: scalar
8


# name: Y
# type: scalar
2


# name: Z
# type: scalar
2


# name: lambda
# type: scalar
0.75


# name: n_iter
# type: scalar
10000


# name: horizon
# type: scalar
1000


# name: n_samples
# type: scalar
16





# name: <cell-element>
# type: scalar struct
# ndims: 2
 1 1
# length: 8
# name: A
# type: scalar
2


# name: X
# type: scalar
8


# name: Y
# type: scalar
2


# name: Z
# type: scalar
2


# name: lambda
# type: scalar
1


# name: n_iter
# type: scalar
10000


# name: horizon
# type: scalar
1000


# name: n_samples
# type: scalar
16







# name: PU
# type: cell
# rows: 1
# columns: 5
# name: <cell-element>
# type: matrix
# rows: 1000
# columns: 2
 0.4916287954657304 0.5195414192448433
 0.4039712567099405 0.5185671841506946
 0.5215487080219071 0.4701036338824937
 0.5772363803591445 0.5726655204654224
 0.4134079993776125 0.5495166276678737
 0.4483657474804346 0.5008662653555687
 0.455750816464789 0.4720486996729854
 0.5130053143688439 0.4146871882961427
 0.5350816344484248 0.5808141338284005
 0.5536882404671253 0.4869480634010433
 0.4107352065094282 0.5289239382707718
 0.5998840014640353 0.4207839184113192
 0.5229996675750982 0.550571178951202
 0.572379465001899 0.5411623294136028
 0.4504429287099467 0.5683473471780465
 0.5745078494327779 0.5099871758262161
 0.5408690586095015 0.5574085700708767
 0.4776266811990028 0.6190008661757502
 0.5672648910724452 0.6293627939934279
 0.4476581133540072 0.5515445254326303
 0.4752918818001681 0.5668914436254872
 0.43899510304321 0.5909682880530506
 0.5412550833664366 0.6046840277063745
 0.5801387477755953 0.603936860666288
 0.5755025008244334 0.6100899531826153
 0.5436759877202113 0.6085829404917831
 0.641706290012996 0.5338371898815131
 0.6213959394743775 0.6165373195687582
 0.6477406065764199 0.6237346968260908
 0.6210897402024101 0.6023751557338075
 0.6636465731838915 0.6423824111451084
 0.5798883983752708 0.6026386917766215
 0.675299547662312 0.6374191163592522
 0.6180345900071447 0.6714665530280677
 0.5734241296464482 0.652901851913851
 0.5785492831228973 0.6373890974974403
 0.577311698143909 0.6577112420950479
 0.5757317653990591 0.6465844931945248
 0.5727909989650921 0.6461230331788428
 0.6101534927138119 0.6742581945282444
 0.674833134268717 0.6575954344358079
 0.5733262050751426 0.6342396488941964
 0.6386523325295688 0.6479698136994683
 0.67334426135584 0.6495924196986513
 0.5754115929425557 0.6357120587363052
 0.5786197104566503 0.6521433126281351
 0.6759835069410971 0.6348593502959257
 0.5780021442139478 0.6529722826534161
 0.576803444970132 0.6733671486265655
 0.6668404547496023 0.6562773591432658
 0.5794090826635119 0.6587815695822339
 0.6596606626789148 0.630295498250475
 0.6411829149560824 0.6733780342461404
 0.6383455488010956 0.6755896537199142
 0.6407780292920304 0.6497234024936474
 0.6770773635087324 0.6635109012730473
 0.6150205961054109 0.667459616551114
 0.6403015996504793 0.6798312518658494
 0.6360612682076254 0.6653567602697636
 0.6602252078947242 0.6794720068174305
 0.678288953618851 0.6671149257921245
 0.6400471662373093 0.6496834828268234
 0.6658151007119006 0.6497179581156187
 0.6699623210424404 0.6778108540668637
 0.6375857503723701 0.6652683332745122
 0.6410731197925594 0.65991599712941
 0.672972221066614 0.6644263502796697
 0.6544063112173348 0.6640442230388832
 0.696808438837333 0.6845315705429214
 0.637341948115304 0.6716743467696207
 0.6951466531678516 0.6907869698158944
 0.6399766783161291 0.6896824614046555
 0.6571798924203682 0.6659010137603885
 0.6755988828768107 0.6684395560999188
 0.6949592405267764 0.6677247789829819
 0.6739134259466322 0.6580584293416403
 0.6684227147188511 0.6882196736071335
 0.6437495065327536 0.6693473496779521
 0.6773949173854004 0.6785781622121472
 0.6735084845484978 0.6747631301041637
 0.6794038817372112 0.6634634912814246
 0.6912716875895466 0.6610469034432767
 0.6416684290457937 0.6776824570695397
 0.6590561209924553 0.6987645045704465
 0.6347781179958443 0.6987645045704465
 0.6606309135566524 0.6987645045704465
 0.6394062742066473 0.6987645045704465
 0.6659994675681717 0.6987645045704465
 0.6924064049957281 0.6987645045704465
 0.6786854303241738 0.6987645045704465
 0.6784252721365838 0.6987645045704465
 0.6401537079605883 0.6987645045704465
 0.6393896850122525 0.6987645045704465
 0.6395748589394552 0.6987645045704465
 0.6398760823347698 0.6987645045704465
 0.638614026761392 0.6987645045704465
 0.6364757903905096 0.6987645045704465
 0.6472523486537054 0.6987645045704465
 0.6390934762568921 0.6987645045704465
 0.6272757730867788 0.6987645045704465
 0.6398295618909831 0.6987645045704465
 0.6379195176986798 0.6987645045704465
 0.6395721170666093 0.6987645045704465
 0.6378640151564432 0.6987645045704465
 0.6388507979110116 0.6987645045704465
 0.6417885004941593 0.6987645045704465
 0.6365225969080006 0.6987645045704465
 0.6397266630235008 0.6987645045704465
 0.6597465750942935 0.6987645045704465
 0.63753380791736 0.6987645045704465
 0.6589436829040181 0.6987645045704465
 0.6362575224667866 0.6987645045704465
 0.6554070321605765 0.6987645045704465
 0.6593247852068223 0.6987645045704465
 0.6586823422433825 0.6987645045704465
 0.6405324272153874 0.6987645045704465
 0.6604976152996946 0.6987645045704465
 0.6400955662856311 0.6987645045704465
 0.6598893759768545 0.6987645045704465
 0.6568766061544318 0.6987645045704465
 0.6558974756138023 0.6987645045704465
 0.6586935504494409 0.6987645045704465
 0.6557563629541703 0.6987645045704465
 0.6598000470381262 0.6987645045704465
 0.6606717476536363 0.6987645045704465
 0.6599538876021038 0.6987645045704465
 0.6545684480632734 0.6987645045704465
 0.658455797221603 0.6987645045704465
 0.6598893759768545 0.6987645045704465
 0.6585302466961915 0.6987645045704465
 0.6598771615378609 0.6987645045704465
 0.6589605085349513 0.6987645045704465
 0.6585834353250521 0.6987645045704465
 0.6584911289367907 0.6987645045704465
 0.6598893759768545 0.6987645045704465
 0.6594200062447009 0.6987645045704465
 0.6586724325104052 0.6987645045704465
 0.6605419993711699 0.6987645045704465
 0.6573061941030465 0.6987645045704465
 0.6518455794589773 0.6987645045704465
 0.6593581625689444 0.6987645045704465
 0.6593249920197752 0.6987645045704465
 0.6598893759768545 0.6987645045704465
 0.6581126565855986 0.6987645045704465
 0.6623772883549992 0.6987645045704465
 0.6587167697735896 0.6987645045704465
 0.6545162032993412 0.6987645045704465
 0.6591604289776773 0.6987645045704465
 0.6583151412952815 0.6987645045704465
 0.6612395636710979 0.6987645045704465
 0.647970730394634 0.6987645045704465
 0.6598893759768545 0.6987645045704465
 0.6597980679946771 0.6987645045704465
 0.6560073772836363 0.6987645045704465
 0.6594686763538364 0.6987645045704465
 0.6595308640755351 0.6987645045704465
 0.6567766816196108 0.6987645045704465
 0.6372261624180833 0.6987645045704465
 0.6574505570701576 0.6987645045704465
 0.660616972241858 0.6987645045704465
 0.6590492119474542 0.6987645045704465
 0.6559724703993066 0.6987645045704465
 0.659217326770509 0.6987645045704465
 0.6589162473828751 0.6987645045704465
 0.6598893759768545 0.6987645045704465
 0.6595557000118819 0.6987645045704465
 0.6598893759768545 0.6987645045704465
 0.6593063954921934 0.6987645045704465
 0.6592169499187774 0.6987645045704465
 0.6578214773103603 0.6987645045704465
 0.6588039363266294 0.6987645045704465
 0.6597948495975001 0.6987645045704465
 0.6598893759768545 0.6987645045704465
 0.6588694081533368 0.6987645045704465
 0.6615784046219604 0.6987645045704465
 0.6588530291410584 0.6987645045704465
 0.6598940303181549 0.6987645045704465
 0.6585729273484835 0.6987645045704465
 0.6592450181971927 0.6987645045704465
 0.6568757281218744 0.6987645045704465
 0.6596902094885335 0.6987645045704465
 0.6580257430799885 0.6987645045704465
 0.6557679696937408 0.6987645045704465
 0.6590432830890509 0.6987645045704465
 0.6599845546094512 0.6987645045704465
 0.6594851829086792 0.6987645045704465
 0.6598893759768545 0.6987645045704465
 0.6584696717616625 0.6987645045704465
 0.6588839723275999 0.6987645045704465
 0.6575977973054128 0.6987645045704465
 0.6598863054530648 0.6987645045704465
 0.6591069083066894 0.6987645045704465
 0.653979797766326 0.6987645045704465
 0.656890428662648 0.6987645045704465
 0.6584773541015689 0.6987645045704465
 0.6599199598094092 0.6987645045704465
 0.6602297477978674 0.6987645045704465
 0.6598633770228617 0.6987645045704465
 0.6613217529712163 0.6987645045704465
 0.6590978136830206 0.6987645045704465
 0.6586057277079453 0.6987645045704465
 0.6592446355799229 0.6987645045704465
 0.6592713170603586 0.6987645045704465
 0.6555882041958911 0.6987645045704465
 0.6603385887200888 0.6987645045704465
 0.6509960010675919 0.6987645045704465
 0.6551684614631521 0.6987645045704465
 0.6471134767405562 0.6987645045704465
 0.6558261163227572 0.6987645045704465
 0.654272601129503 0.6987645045704465
 0.6582936065740272 0.6987645045704465
 0.6591106641775306 0.6987645045704465
 0.6541297325275877 0.6987645045704465
 0.6593445176324593 0.6987645045704465
 0.6599603234260332 0.6987645045704465
 0.653851285330145 0.6987645045704465
 0.6558290740155119 0.6987645045704465
 0.6618086552977995 0.6987645045704465
 0.6598893759768545 0.6987645045704465
 0.6565722687983979 0.6987645045704465
 0.6503773718236707 0.6987645045704465
 0.6600968783973267 0.6987645045704465
 0.6587651384794777 0.6987645045704465
 0.6598446064510839 0.6987645045704465
 0.6607336051812842 0.6987645045704465
 0.6606995911128626 0.6987645045704465
 0.6594522886503014 0.6987645045704465
 0.6590372298367995 0.6987645045704465
 0.6597057452282902 0.6987645045704465
 0.6657744583658474 0.6987645045704465
 0.6598893759768545 0.6987645045704465
 0.6613715371429174 0.6987645045704465
 0.6506326315672732 0.6987645045704465
 0.6597252189693701 0.6987645045704465
 0.6609960592155795 0.6987645045704465
 0.6381025243039911 0.6987645045704465
 0.6598893759768545 0.6987645045704465
 0.6591169980545142 0.6987645045704465
 0.6605118016762859 0.6987645045704465
 0.6594052144361291 0.6987645045704465
 0.6599489500118036 0.6987645045704465
 0.6583734646457806 0.6987645045704465
 0.6599584437535362 0.6987645045704465
 0.6598893759768545 0.6987645045704465
 0.658721636783441 0.6987645045704465
 0.6588496536610113 0.6987645045704465
 0.6579828953122773 0.6987645045704465
 0.6589903343027037 0.6987645045704465
 0.6599300341324179 0.6987645045704465
 0.6580047010042274 0.6987645045704465
 0.6593725369653745 0.6987645045704465
 0.6598893759768545 0.6987645045704465
 0.6538720027963059 0.6987645045704465
 0.6589035621108625 0.6987645045704465
 0.659116904668833 0.6987645045704465
 0.6609513557802176 0.6987645045704465
 0.6594544748922218 0.6987645045704465
 0.6596921754531619 0.6987645045704465
 0.6599642262987053 0.6987645045704465
 0.6566189304609862 0.6987645045704465
 0.6567186355806827 0.6987645045704465
 0.6583150195498972 0.6987645045704465
 0.6591409622708708 0.6987645045704465
 0.6619312498915424 0.6987645045704465
 0.6600259009243712 0.6987645045704465
 0.6582304832470465 0.6987645045704465
 0.6596334620982749 0.6987645045704465
 0.6591744273267002 0.6987645045704465
 0.660725992408278 0.6987645045704465
 0.6577467485949293 0.6987645045704465
 0.6599745601418441 0.6987645045704465
 0.6579064401402057 0.6987645045704465
 0.6588896827417701 0.6987645045704465
 0.6597374908038542 0.6987645045704465
 0.659704998089865 0.6987645045704465
 0.6585965743891466 0.6987645045704465
 0.6580935167276947 0.6987645045704465
 0.6600328356407261 0.6987645045704465
 0.6571769671029934 0.6987645045704465
 0.6599020919871321 0.6987645045704465
 0.6596424604582631 0.6987645045704465
 0.6589281825906506 0.6987645045704465
 0.6598893759768545 0.6987645045704465
 0.6575595686734577 0.6987645045704465
 0.6595267087433707 0.6987645045704465
 0.6596892601630946 0.6987645045704465
 0.6632738180412896 0.6987645045704465
 0.6678459152752658 0.6987645045704465
 0.6608999551162842 0.6987645045704465
 0.6617082272295769 0.6987645045704465
 0.6594514989331957 0.6987645045704465
 0.6600381913901965 0.6987645045704465
 0.6578787930537131 0.6987645045704465
 0.659471108921907 0.6987645045704465
 0.6574548274424288 0.6987645045704465
 0.6592504477629764 0.6987645045704465
 0.662509692483658 0.6987645045704465
 0.658715652804079 0.6987645045704465
 0.6598893759768545 0.6987645045704465
 0.659881675231387 0.6987645045704465
 0.6598893759768545 0.6987645045704465
 0.6593687919479139 0.6987645045704465
 0.6585031670159323 0.6987645045704465
 0.6581308328487643 0.6987645045704465
 0.6598893759768545 0.6987645045704465
 0.6598893759768545 0.6987645045704465
 0.6592421415624949 0.6987645045704465
 0.6573648302016526 0.6987645045704465
 0.6603788255229814 0.6987645045704465
 0.6590318147659966 0.6987645045704465
 0.6580173711258357 0.6987645045704465
 0.6613412137538948 0.6987645045704465
 0.6595817128590464 0.6987645045704465
 0.6559118762274483 0.6987645045704465
 0.6586238075269573 0.6987645045704465
 0.6597139785526402 0.6987645045704465
 0.6598345674109463 0.6987645045704465
 0.6608422364598223 0.6987645045704465
 0.6592482818202048 0.6987645045704465
 0.6597045779744843 0.6987645045704465
 0.6598893759768545 0.6987645045704465
 0.6594914538944101 0.6987645045704465
 0.655423515795031 0.6987645045704465
 0.6598893759768545 0.6987645045704465
 0.6600038324810509 0.6987645045704465
 0.659692799830254 0.6987645045704465
 0.6583276317799127 0.6987645045704465
 0.6625244934638663 0.6987645045704465
 0.6593174906105381 0.6987645045704465
 0.6595872411129169 0.6987645045704465
 0.6600240461433289 0.6987645045704465
 0.6597513210530621 0.6987645045704465
 0.6596657567899564 0.6987645045704465
 0.6598118041188685 0.6987645045704465
 0.6598893759768545 0.6987645045704465
 0.659576683633825 0.6987645045704465
 0.6612807180918261 0.6987645045704465
 0.6611546018783212 0.6987645045704465
 0.6596323154347119 0.6987645045704465
 0.6673716484113479 0.6987645045704465
 0.6635376272447793 0.6987645045704465
 0.6594888816826103 0.6987645045704465
 0.6591540029834551 0.6987645045704465
 0.6589584324048257 0.6987645045704465
 0.6573153832786867 0.6987645045704465
 0.6599049861381991 0.6987645045704465
 0.6672070159199055 0.6987645045704465
 0.6598893759768545 0.6987645045704465
 0.6598893759768545 0.6987645045704465
 0.657653068783566 0.6987645045704465
 0.660195831092673 0.6987645045704465
 0.6564789224816436 0.6987645045704465
 0.6587768792750355 0.6987645045704465
 0.6605617152359322 0.6987645045704465
 0.654933460373446 0.6987645045704465
 0.6595856663936139 0.6987645045704465
 0.6569374177428273 0.6987645045704465
 0.6592463424133317 0.6987645045704465
 0.6671066504792031 0.6987645045704465
 0.6583867770488971 0.6987645045704465
 0.6676023308690373 0.6987645045704465
 0.6601094519564394 0.6987645045704465
 0.6602561305437158 0.6987645045704465
 0.6568973512042118 0.6987645045704465
 0.6575813574226879 0.6987645045704465
 0.6602432487573091 0.6987645045704465
 0.6648707766830255 0.6987645045704465
 0.6670292429742433 0.6987645045704465
 0.6599769862224298 0.6987645045704465
 0.6608414302143144 0.6987645045704465
 0.6690887239293069 0.6987645045704465
 0.6674119452545406 0.6987645045704465
 0.6615898996415099 0.6987645045704465
 0.668051710892795 0.6987645045704465
 0.6600545323601423 0.6987645045704465
 0.6582198601481062 0.6987645045704465
 0.667632385224735 0.6987645045704465
 0.6579217285315875 0.6987645045704465
 0.6661686790229884 0.6987645045704465
 0.6605046217065997 0.6987645045704465
 0.6592816841278919 0.6987645045704465
 0.6595907917188579 0.6987645045704465
 0.6669926498631178 0.6987645045704465
 0.6680180355277443 0.6987645045704465
 0.6602687748576721 0.6987645045704465
 0.669637041032612 0.6987645045704465
 0.6673181335743692 0.6987645045704465
 0.6679383050351313 0.6987645045704465
 0.6678488433893757 0.6987645045704465
 0.668051710892795 0.6987645045704465
 0.668051710892795 0.6987645045704465
 0.664211561980059 0.6987645045704465
 0.6679821499391685 0.6987645045704465
 0.6660960275479324 0.6987645045704465
 0.6682914100897592 0.6987645045704465
 0.6576915739686238 0.6987645045704465
 0.6679388823277388 0.6987645045704465
 0.6688109145443741 0.6987645045704465
 0.6625667915049882 0.6987645045704465
 0.6677953344992882 0.6987645045704465
 0.667832894193642 0.6987645045704465
 0.6680230387764405 0.6987645045704465
 0.659828369994274 0.6987645045704465
 0.6677626852048277 0.6987645045704465
 0.6676555357618461 0.6987645045704465
 0.6674864551206559 0.6987645045704465
 0.6678793149705917 0.6987645045704465
 0.6688154275151608 0.6987645045704465
 0.6647723125089384 0.6987645045704465
 0.6680246790460591 0.6987645045704465
 0.6595445715772672 0.6987645045704465
 0.66752454420193 0.6987645045704465
 0.6664628975438958 0.6987645045704465
 0.6666866591294567 0.6987645045704465
 0.6676168367900885 0.6987645045704465
 0.6676408104964424 0.6987645045704465
 0.6680503210985145 0.6987645045704465
 0.6695265563960724 0.6987645045704465
 0.6598893759768545 0.6987645045704465
 0.6595516782271917 0.6987645045704465
 0.667765097868884 0.6987645045704465
 0.6597969703717717 0.6987645045704465
 0.6702140045300056 0.6987645045704465
 0.6551228996565741 0.6987645045704465
 0.6672750472649669 0.6987645045704465
 0.668051710892795 0.6987645045704465
 0.6665616419871383 0.6987645045704465
 0.6620032717785673 0.6987645045704465
 0.660180441779828 0.6987645045704465
 0.6602496842339252 0.6987645045704465
 0.668051710892795 0.6987645045704465
 0.6553449112995307 0.6987645045704465
 0.6663834828545452 0.6987645045704465
 0.6570346689502491 0.6987645045704465
 0.6703820462608172 0.6987645045704465
 0.6680218526422574 0.6987645045704465
 0.6668521888090142 0.6987645045704465
 0.6655569358858111 0.6987645045704465
 0.667692660047178 0.6987645045704465
 0.6709995903707489 0.6987645045704465
 0.6678336668578899 0.6987645045704465
 0.6601843339866786 0.6987645045704465
 0.658702394328323 0.6987645045704465
 0.6618290202162511 0.6987645045704465
 0.6600090909215752 0.6987645045704465
 0.6680381941977911 0.6987645045704465
 0.6597665600401055 0.6987645045704465
 0.6592127512165278 0.6987645045704465
 0.6598893759768545 0.6987645045704465
 0.6575629593980896 0.6987645045704465
 0.659823382204819 0.6987645045704465
 0.6596419582191122 0.6987645045704465
 0.6591858403887245 0.6987645045704465
 0.6679069897692327 0.6987645045704465
 0.6582898417628182 0.6987645045704465
 0.6602529838139506 0.6987645045704465
 0.6592741292515889 0.6987645045704465
 0.658871752752143 0.6987645045704465
 0.6598177645204146 0.6987645045704465
 0.663834089235525 0.6987645045704465
 0.6584225098370233 0.6987645045704465
 0.6598893759768545 0.6987645045704465
 0.6586198486285386 0.6987645045704465
 0.6608347926296256 0.6987645045704465
 0.6599238772452414 0.6987645045704465
 0.6598172956643917 0.6987645045704465
 0.6603974426725585 0.6987645045704465
 0.659200154495923 0.6987645045704465
 0.6675431820684909 0.6987645045704465
 0.6593727209083218 0.6987645045704465
 0.6598590290398052 0.6987645045704465
 0.659976584468196 0.6987645045704465
 0.6610380585262519 0.6987645045704465
 0.6670092114590289 0.6987645045704465
 0.659915695710835 0.6987645045704465
 0.6614674521329698 0.6987645045704465
 0.6588976376824296 0.6987645045704465
 0.6595241845160684 0.6987645045704465
 0.6600584979200628 0.6987645045704465
 0.6575105685273019 0.6987645045704465
 0.6587706412168342 0.6987645045704465
 0.659394747462084 0.6987645045704465
 0.6595336210079059 0.6987645045704465
 0.667245280693612 0.6987645045704465
 0.6568297792974134 0.6987645045704465
 0.6647762742121828 0.6987645045704465
 0.659488640506632 0.6987645045704465
 0.6587624037462614 0.6987645045704465
 0.6598285051023036 0.6987645045704465
 0.6623759720929663 0.6987645045704465
 0.6609001065352493 0.6987645045704465
 0.6602215021034521 0.6987645045704465
 0.6574457669538558 0.6987645045704465
 0.6603012255887333 0.6987645045704465
 0.6586313939358213 0.6987645045704465
 0.6599420387283141 0.6987645045704465
 0.6597934295066177 0.6987645045704465
 0.6595783548731073 0.6987645045704465
 0.6595941146891811 0.6987645045704465
 0.6598259645133393 0.6987645045704465
 0.6595375193641193 0.6987645045704465
 0.6600202324414961 0.6987645045704465
 0.6598488257793451 0.6987645045704465
 0.6559329104659217 0.6987645045704465
 0.6598430107986573 0.6987645045704465
 0.6597735879695792 0.6987645045704465
 0.6596215429881185 0.6987645045704465
 0.6594261040094451 0.6987645045704465
 0.6575025507577714 0.6987645045704465
 0.6608542584605013 0.6987645045704465
 0.6594195653785828 0.6987645045704465
 0.6597675574784889 0.6987645045704465
 0.668051710892795 0.6987645045704465
 0.6592149980928173 0.6987645045704465
 0.6611530420345793 0.6987645045704465
 0.6597618807195034 0.6987645045704465
 0.6593488589300198 0.6987645045704465
 0.6650339855627212 0.6987645045704465
 0.6575605450879338 0.6987645045704465
 0.6600373630389356 0.6987645045704465
 0.659678693486349 0.6987645045704465
 0.659376043340548 0.6987645045704465
 0.6600089653388006 0.6987645045704465
 0.6656102825926176 0.6987645045704465
 0.6598624119437932 0.6987645045704465
 0.6572206455182996 0.6987645045704465
 0.6595120402666506 0.6987645045704465
 0.6593904192831248 0.6987645045704465
 0.6598757892050122 0.6987645045704465
 0.6576268991985654 0.6987645045704465
 0.6598893759768545 0.6987645045704465
 0.6591996805336802 0.6987645045704465
 0.659906975476231 0.6987645045704465
 0.6597991715702274 0.6987645045704465
 0.6599371593774881 0.6987645045704465
 0.659679660537783 0.6987645045704465
 0.6600588180798379 0.6987645045704465
 0.6598893759768545 0.6987645045704465
 0.6594276306707931 0.6987645045704465
 0.6600216160758809 0.6987645045704465
 0.6587828144833894 0.6987645045704465
 0.6579729106699546 0.6987645045704465
 0.6656970155827606 0.6987645045704465
 0.6646600094176851 0.6987645045704465
 0.6611809539174829 0.6987645045704465
 0.6635358265912386 0.6987645045704465
 0.6591974834419332 0.6987645045704465
 0.6539601120883485 0.6987645045704465
 0.6594740107887043 0.6987645045704465
 0.6590550284862959 0.6987645045704465
 0.6579374453952773 0.6987645045704465
 0.6549585522767329 0.6987645045704465
 0.6598893759768545 0.6987645045704465
 0.6598183530249484 0.6987645045704465
 0.6595508573128397 0.6987645045704465
 0.6581169148566497 0.6987645045704465
 0.6594721955905345 0.6987645045704465
 0.6557685878233146 0.6987645045704465
 0.6676302825749101 0.6987645045704465
 0.6668315103769 0.6987645045704465
 0.6598893759768545 0.6987645045704465
 0.6598893759768545 0.6987645045704465
 0.6645857789297349 0.6987645045704465
 0.6600043190937559 0.6987645045704465
 0.6589707778549305 0.6987645045704465
 0.6598893759768545 0.6987645045704465
 0.6599456973542603 0.6987645045704465
 0.6598898953282133 0.6987645045704465
 0.6589994717049485 0.6987645045704465
 0.6546882854213179 0.6987645045704465
 0.6566775124369983 0.6987645045704465
 0.6679312112896096 0.6987645045704465
 0.6588882714937176 0.6987645045704465
 0.6611924213275162 0.6987645045704465
 0.6601630273458703 0.6987645045704465
 0.6597165098184747 0.6987645045704465
 0.6594195437024259 0.6987645045704465
 0.6605136112523267 0.6987645045704465
 0.6614699355716689 0.6987645045704465
 0.659692669761649 0.6987645045704465
 0.6580909949632383 0.6987645045704465
 0.6592853504950646 0.6987645045704465
 0.659949871979393 0.6987645045704465
 0.6595001412910886 0.6987645045704465
 0.6602142217163744 0.6987645045704465
 0.6511476981373499 0.6987645045704465
 0.6602938180144413 0.6987645045704465
 0.656889645062761 0.6987645045704465
 0.6635130302389893 0.6987645045704465
 0.6595879669644993 0.6987645045704465
 0.6582047078247777 0.6987645045704465
 0.6597767701323753 0.6987645045704465
 0.6606260426892681 0.6987645045704465
 0.6598619749065002 0.6987645045704465
 0.6601532584838685 0.6987645045704465
 0.6598502921875657 0.6987645045704465
 0.6634524448325103 0.6987645045704465
 0.6568546632112893 0.6987645045704465
 0.6593481542273674 0.6987645045704465
 0.6635866554875387 0.6987645045704465
 0.6677119743865962 0.6987645045704465
 0.6596203140284074 0.6987645045704465
 0.6588775673268219 0.6987645045704465
 0.6599109070195122 0.6987645045704465
 0.6595090043029679 0.6987645045704465
 0.6583256811495932 0.6987645045704465
 0.6593301059541539 0.6987645045704465
 0.6569277868705825 0.6987645045704465
 0.6618955458198674 0.6987645045704465
 0.659632415653657 0.6987645045704465
 0.6598893759768545 0.6987645045704465
 0.6573030811916205 0.6987645045704465
 0.6598630784489454 0.6987645045704465
 0.6598893759768545 0.6987645045704465
 0.6598893759768545 0.6987645045704465
 0.6540018635585167 0.6987645045704465
 0.6599651018414241 0.6987645045704465
 0.6600521251641045 0.6987645045704465
 0.6598893759768545 0.6987645045704465
 0.6600609644849964 0.6987645045704465
 0.6593809652782516 0.6987645045704465
 0.6621614829482139 0.6987645045704465
 0.6682204732304433 0.6987645045704465
 0.6594581010588796 0.6987645045704465
 0.6667591414975751 0.6987645045704465
 0.6562522245042088 0.6987645045704465
 0.6598893759768545 0.6987645045704465
 0.6666218723497341 0.6987645045704465
 0.6582971000165696 0.6987645045704465
 0.6584063569508423 0.6987645045704465
 0.6598134429590492 0.6987645045704465
 0.6599746927736792 0.6987645045704465
 0.6594065589326599 0.6987645045704465
 0.6572857705234796 0.6987645045704465
 0.6674186281744872 0.6987645045704465
 0.6583545001393754 0.6987645045704465
 0.6588617425949392 0.6987645045704465
 0.6605810514708785 0.6987645045704465
 0.6534682942230974 0.6987645045704465
 0.6603490148207796 0.6987645045704465
 0.659904902956993 0.6987645045704465
 0.6548841321606347 0.6987645045704465
 0.6544259160192452 0.6987645045704465
 0.6589936099293219 0.6987645045704465
 0.6598893759768545 0.6987645045704465
 0.6589968265874186 0.6987645045704465
 0.6573831389079612 0.6987645045704465
 0.6590120720276942 0.6987645045704465
 0.6645030905900766 0.6987645045704465
 0.6588211285635721 0.6987645045704465
 0.6616318479515295 0.6987645045704465
 0.6528663934025292 0.6987645045704465
 0.6596962292551221 0.6987645045704465
 0.6597710450610683 0.6987645045704465
 0.658409943919944 0.6987645045704465
 0.6595908029471647 0.6987645045704465
 0.6593664877854206 0.6987645045704465
 0.6598893759768545 0.6987645045704465
 0.6597353717215513 0.6987645045704465
 0.6612163147960746 0.6987645045704465
 0.6598893759768545 0.6987645045704465
 0.6576241836753489 0.6987645045704465
 0.6585907963624427 0.6987645045704465
 0.6590159652342205 0.6987645045704465
 0.6498506310872996 0.6987645045704465
 0.6507100523197222 0.6987645045704465
 0.651115300585742 0.6987645045704465
 0.6503826842019655 0.6987645045704465
 0.6499162328572536 0.6987645045704465
 0.6478428199421147 0.6987645045704465
 0.6510569212796111 0.6987645045704465
 0.6505485923473906 0.6987645045704465
 0.6506813961079596 0.6987645045704465
 0.6464569159889391 0.6987645045704465
 0.6430947908449614 0.6987645045704465
 0.6446982266866439 0.6987645045704465
 0.6473482687354755 0.6987645045704465
 0.6504013928601091 0.6987645045704465
 0.6501115635129171 0.6987645045704465
 0.6504209545764181 0.6987645045704465
 0.6484931256568391 0.6987645045704465
 0.6490556394404652 0.6987645045704465
 0.6499441408828024 0.6987645045704465
 0.6503826842019655 0.6987645045704465
 0.6505941081555751 0.6987645045704465
 0.6489741613599527 0.6987645045704465
 0.6503548718419225 0.6987645045704465
 0.6493904913322706 0.6987645045704465
 0.6479592615213634 0.6987645045704465
 0.6502159795663247 0.6987645045704465
 0.649834196783885 0.6987645045704465
 0.6511294748359877 0.6987645045704465
 0.6531529883933047 0.6987645045704465
 0.6506961677803607 0.6987645045704465
 0.6579480679564738 0.6987645045704465
 0.650502964316972 0.6987645045704465
 0.6503876633311323 0.6987645045704465
 0.6490406649564511 0.6987645045704465
 0.6492869179989771 0.6987645045704465
 0.6520768926392961 0.6987645045704465
 0.6498709177481605 0.6987645045704465
 0.6598155650815865 0.6987645045704465
 0.6590367531658174 0.6987645045704465
 0.6504572378836415 0.6987645045704465
 0.658632041983056 0.6987645045704465
 0.6598511644118412 0.6987645045704465
 0.6531991331796427 0.6987645045704465
 0.6585388104753072 0.6987645045704465
 0.6596105392611129 0.6987645045704465
 0.6586117992990961 0.6987645045704465
 0.6631882990790969 0.6987645045704465
 0.6591358858018281 0.6987645045704465
 0.6560447659312711 0.6987645045704465
 0.6629797550807957 0.6987645045704465
 0.6614366764535522 0.6987645045704465
 0.65961437779646 0.6987645045704465
 0.6506431420718781 0.6987645045704465
 0.6598587218681076 0.6987645045704465
 0.6614565071388387 0.6987645045704465