# Created by Octave 4.0.0, Tue May 15 03:36:48 2018 CEST <olethros@olethros-OptiPlex-9010>
# name: results
# type: struct
# ndims: 2
 1 5
# length: 8
# name: options
# type: cell
# rows: 1
# columns: 5
# name: <cell-element>
# type: scalar struct
# ndims: 2
 1 1
# length: 8
# name: A
# type: scalar
2


# name: X
# type: scalar
8


# name: Y
# type: scalar
2


# name: Z
# type: scalar
2


# name: lambda
# type: scalar
0


# name: n_iter
# type: scalar
10000


# name: horizon
# type: scalar
1000


# name: n_samples
# type: scalar
16





# name: <cell-element>
# type: scalar struct
# ndims: 2
 1 1
# length: 8
# name: A
# type: scalar
2


# name: X
# type: scalar
8


# name: Y
# type: scalar
2


# name: Z
# type: scalar
2


# name: lambda
# type: scalar
0.25


# name: n_iter
# type: scalar
10000


# name: horizon
# type: scalar
1000


# name: n_samples
# type: scalar
16





# name: <cell-element>
# type: scalar struct
# ndims: 2
 1 1
# length: 8
# name: A
# type: scalar
2


# name: X
# type: scalar
8


# name: Y
# type: scalar
2


# name: Z
# type: scalar
2


# name: lambda
# type: scalar
0.5


# name: n_iter
# type: scalar
10000


# name: horizon
# type: scalar
1000


# name: n_samples
# type: scalar
16





# name: <cell-element>
# type: scalar struct
# ndims: 2
 1 1
# length: 8
# name: A
# type: scalar
2


# name: X
# type: scalar
8


# name: Y
# type: scalar
2


# name: Z
# type: scalar
2


# name: lambda
# type: scalar
0.75


# name: n_iter
# type: scalar
10000


# name: horizon
# type: scalar
1000


# name: n_samples
# type: scalar
16





# name: <cell-element>
# type: scalar struct
# ndims: 2
 1 1
# length: 8
# name: A
# type: scalar
2


# name: X
# type: scalar
8


# name: Y
# type: scalar
2


# name: Z
# type: scalar
2


# name: lambda
# type: scalar
1


# name: n_iter
# type: scalar
10000


# name: horizon
# type: scalar
1000


# name: n_samples
# type: scalar
16







# name: PU
# type: cell
# rows: 1
# columns: 5
# name: <cell-element>
# type: matrix
# rows: 1000
# columns: 2
 0.5001925361682161 0.539916081295266
 0.4816671997230639 0.539916081295266
 0.4629168600718949 0.5255374138238574
 0.5916634970732986 0.5268763274213706
 0.5881982900514777 0.4059501969624619
 0.6101795874458131 0.4629397243784303
 0.6427862749529349 0.556306687002997
 0.6286488093690333 0.5020187326210467
 0.5951585922784716 0.4704849503907794
 0.62455701506698 0.517098190424773
 0.5268884949616911 0.5001812289353976
 0.6047380330501004 0.502539513743731
 0.6034979742121198 0.5098641648408219
 0.6761450046008258 0.4831081093558847
 0.6406378381936955 0.5478169897209445
 0.6288369719897222 0.5334515445820842
 0.5791602639820833 0.5593703045074252
 0.6025570711810131 0.5550031592664576
 0.6027103446143696 0.6069589559249851
 0.6269856075200484 0.5939155727126546
 0.6282821705629906 0.5671493779453811
 0.6533264538688821 0.5886310959728775
 0.5809423199301759 0.5445800091795781
 0.672858009997421 0.5813162930551425
 0.6055309256709273 0.5721738852648819
 0.5706973496352979 0.6048938923472768
 0.6793290798498319 0.6000681684626599
 0.6796671337316738 0.6157586063910763
 0.6545225068170601 0.5587430052813634
 0.6328862707894882 0.6112763597928506
 0.6017531772757996 0.589444268194673
 0.6775675344221894 0.5662683938969558
 0.6328186711681206 0.5988667309704715
 0.6806734655865108 0.5493016221500904
 0.6797498031572297 0.616437785052059
 0.6288340533909631 0.6203893117441929
 0.629565728200375 0.629252176971146
 0.5914901992141613 0.6304143515083245
 0.677093682219767 0.6344180065682681
 0.6779121379284171 0.6430026002055079
 0.6717506868838992 0.6415652581454196
 0.6748399628998381 0.6441906632508646
 0.654620237465072 0.6607601349716652
 0.6541285026935264 0.6438627360466923
 0.6787612336619515 0.6490290357806424
 0.679884349729339 0.6556936592692446
 0.6801360404362015 0.6547426213588705
 0.6781071951686204 0.6547426213588705
 0.6785624104990499 0.6547426213588705
 0.679799079412581 0.6547426213588705
 0.6806676856739393 0.6547426213588705
 0.6783487786572513 0.6547426213588705
 0.6796067706586169 0.6547426213588705
 0.68067668701838 0.6547426213588705
 0.6806700600510227 0.6547426213588705
 0.6743554787282976 0.6547426213588705
 0.680679892816636 0.6547426213588705
 0.6798861439320842 0.6547426213588705
 0.6795808771651211 0.6547426213588705
 0.6751764308391115 0.6547426213588705
 0.6740790345709788 0.6547426213588705
 0.6804819267552427 0.6547426213588705
 0.6787437227123233 0.6547426213588705
 0.6797510590335962 0.6547426213588705
 0.6791009212533787 0.6547426213588705
 0.6775039167622475 0.6547426213588705
 0.6803712358100555 0.6547426213588705
 0.6805119940936547 0.6547426213588705
 0.6743071173223829 0.6547426213588705
 0.6791882206045112 0.6547426213588705
 0.6799996089627559 0.6547426213588705
 0.6749351408769236 0.6547426213588705
 0.6803714461870176 0.6547426213588705
 0.6785798410494794 0.6547426213588705
 0.6791336863545334 0.6547426213588705
 0.6800834229858244 0.6547426213588705
 0.6740365345255924 0.6547426213588705
 0.6803648962739482 0.6547426213588705
 0.6804553551531908 0.6547426213588705
 0.6803751057481175 0.6547426213588705
 0.6803609568793518 0.6547426213588705
 0.6795732419234961 0.6547426213588705
 0.6803667554492172 0.6547426213588705
 0.6752170675207918 0.6547426213588705
 0.6803622618884773 0.6547426213588705
 0.680115538238226 0.6547426213588705
 0.6803609568793518 0.6547426213588705
 0.6799168298996641 0.6547426213588705
 0.6800701049674702 0.6547426213588705
 0.6801734861342897 0.6547426213588705
 0.6804906873579918 0.6547426213588705
 0.6789196467950968 0.6547426213588705
 0.6804520331679245 0.6547426213588705
 0.6805257744197876 0.6547426213588705
 0.6787929978783006 0.6547426213588705
 0.6802148113117032 0.6547426213588705
 0.6801505050982156 0.6547426213588705
 0.6806799836716307 0.6547426213588705
 0.6804668363321936 0.6547426213588705
 0.6762984104804661 0.6547426213588705
 0.6796466730339636 0.666378372218142
 0.6800550166604563 0.6806799836716307
 0.6759919877684988 0.6806799836716307
 0.6806799836716307 0.6806799836716307
 0.6798707711304011 0.6806799836716307
 0.6797368610169188 0.6806799836716307
 0.6684045696771412 0.6806799836716307
 0.6788657328142972 0.6806799836716307
 0.6794776660071078 0.6806799836716307
 0.6721250932371541 0.6806799836716307
 0.6806799836716307 0.6806799836716307
 0.6805774045474349 0.6806799836716307
 0.6785835760106468 0.6806799836716307
 0.6763919692332105 0.6806799836716307
 0.6806799836716307 0.6806799836716307
 0.6806799836716307 0.6806799836716307
 0.6787071368856975 0.6806799836716307
 0.6806799836716307 0.6806799836716307
 0.6794487890219437 0.6806799836716307
 0.680407488723493 0.6806799836716307
 0.6805920705783075 0.6806799836716307
 0.6791241183707115 0.6806799836716307
 0.6806799836716307 0.6806799836716307
 0.6766749046099425 0.6806799836716307
 0.6803530155693915 0.6806799836716307
 0.6798436842432798 0.6806799836716307
 0.6806799836716307 0.6806799836716307
 0.6805114842244406 0.6806799836716307
 0.6806799836716307 0.6806799836716307
 0.6806629802495475 0.6806799836716307
 0.6806799836716307 0.6806799836716307
 0.6665101850673555 0.6806799836716307
 0.6806799836716307 0.6806799836716307
 0.6356170252537001 0.6806799836716307
 0.6801448185607228 0.6806799836716307
 0.6806799836716307 0.6806799836716307
 0.6801424025896644 0.6806799836716307
 0.6774993088532647 0.6806799836716307
 0.6800596310374992 0.6806799836716307
 0.6797336316923418 0.6806799836716307
 0.6785446065583617 0.6806799836716307
 0.6784160850712617 0.6806799836716307
 0.6774374628001865 0.6806799836716307
 0.6806799836716307 0.6806799836716307
 0.6749985120673483 0.6806799836716307
 0.6802352560422206 0.6806799836716307
 0.6771079705000183 0.6806799836716307
 0.6806777672463116 0.6806799836716307
 0.6797697035217916 0.6806799836716307
 0.6792954725807757 0.6806799836716307
 0.6804198454870164 0.6806799836716307
 0.6784139476507309 0.6806799836716307
 0.6806799836716307 0.6806799836716307
 0.6746896210695337 0.6806799836716307
 0.6806796884714379 0.6806799836716307
 0.6736702392121691 0.6806799836716307
 0.6773395870144168 0.6806799836716307
 0.6785465462095467 0.6806799836716307
 0.6795291151643478 0.6806799836716307
 0.6804713332334014 0.6806799836716307
 0.6757901653722354 0.6806799836716307
 0.6806799836716307 0.6806799836716307
 0.6802790394671532 0.6806799836716307
 0.6805249445727737 0.6806799836716307
 0.6792772404752416 0.6806799836716307
 0.6790955576580249 0.6806799836716307
 0.6795290276640853 0.6806799836716307
 0.6794684914719029 0.6806799836716307
 0.6700749219423965 0.6806799836716307
 0.6786753959701242 0.6806799836716307
 0.6753132189243103 0.6806799836716307
 0.6806799836716307 0.6806799836716307
 0.6769344158091622 0.6806799836716307
 0.6727606869615738 0.6806799836716307
 0.6702689586070468 0.6806799836716307
 0.6805185454934453 0.6806799836716307
 0.6803546768368059 0.6806799836716307
 0.6676247489067952 0.6806799836716307
 0.6806799836716307 0.6806799836716307
 0.6806799836716307 0.6806799836716307
 0.6780798577896487 0.6806799836716307
 0.675660052523205 0.6806799836716307
 0.6702379977911993 0.6806799836716307
 0.6795928958992228 0.6806799836716307
 0.6788608738934758 0.6806799836716307
 0.6803050285165568 0.6806799836716307
 0.6806799836716307 0.6806799836716307
 0.6806799836716307 0.6806799836716307
 0.6806799836716307 0.6806799836716307
 0.6726922878858548 0.6806799836716307
 0.6799192520256639 0.6806799836716307
 0.6802697282901067 0.6806799836716307
 0.6800138825645093 0.6806799836716307
 0.6803733177795575 0.6806799836716307
 0.6806799836716307 0.6806799836716307
 0.6754944797366575 0.6806799836716307
 0.6803813355811711 0.6806799836716307
 0.6709532403807901 0.6806799836716307
 0.6800948272272964 0.6806799836716307
 0.6802462928299188 0.6806799836716307
 0.6764455860538177 0.6806799836716307
 0.673301064672157 0.6806799836716307
 0.6806799836716307 0.6806799836716307
 0.6800513195350915 0.6806799836716307
 0.6792719633416948 0.6806799836716307
 0.6806799836716307 0.6806799836716307
 0.67877623807892 0.6806799836716307
 0.6797867975969376 0.6806799836716307
 0.6791090617163564 0.6806799836716307
 0.6782683890414788 0.6806799836716307
 0.6795204766903278 0.6806799836716307
 0.6806795719400811 0.6806799836716307
 0.6787495867075499 0.6806799836716307
 0.680274783540985 0.6806799836716307
 0.6806799836716307 0.6806799836716307
 0.6795314874358306 0.6806799836716307
 0.6788592644073027 0.6806799836716307
 0.6806799836716307 0.6806799836716307
 0.6805163063156277 0.6806799836716307
 0.6804443784051764 0.6806799836716307
 0.6800129931992598 0.6806799836716307
 0.6804646010610476 0.6806799836716307
 0.6806799836716307 0.6806799836716307
 0.6766421026256274 0.6806799836716307
 0.6695950088751556 0.6806799836716307
 0.6796578618706953 0.6806799836716307
 0.6802869008562514 0.6806799836716307
 0.6789429068222614 0.6806799836716307
 0.6804054655950038 0.6806799836716307
 0.6733139360571332 0.6806799836716307
 0.679663631619986 0.6806799836716307
 0.6806799836716307 0.6806799836716307
 0.6806513582322582 0.6806799836716307
 0.6802286490823938 0.6806799836716307
 0.6799267308655041 0.6806799836716307
 0.6806799836716307 0.6806799836716307
 0.6799851832924508 0.6806799836716307
 0.6802780374703091 0.6806799836716307
 0.6796686607015936 0.6806799836716307
 0.6792438607620468 0.6806799836716307
 0.6804087162058213 0.6806799836716307
 0.6797704999471931 0.6806799836716307
 0.6772129139039079 0.6806799836716307
 0.6802825818152675 0.6806799836716307
 0.6806364575374486 0.6806799836716307
 0.6792041143436996 0.6806799836716307
 0.6806024190194165 0.6806799836716307
 0.6802737443311891 0.6806799836716307
 0.6760925539058256 0.6806799836716307
 0.6802639706656531 0.6806799836716307
 0.6796953026527675 0.6806799836716307
 0.6806112752964836 0.6806799836716307
 0.6798380743172263 0.6806799836716307
 0.6799299008970072 0.6806799836716307
 0.6766262993659559 0.6806799836716307
 0.6796893534957802 0.6806799836716307
 0.6791068592151922 0.6806799836716307
 0.6798259076224362 0.6806799836716307
 0.6778996633937516 0.6806799836716307
 0.6806799836716307 0.6806799836716307
 0.6792806120072447 0.6806799836716307
 0.6802019086570009 0.6806799836716307
 0.6780796539295511 0.6806799836716307
 0.6806799836716307 0.6806799836716307
 0.6806799836716307 0.6806799836716307
 0.6798609058465952 0.6806799836716307
 0.6783597885580447 0.6806799836716307
 0.6787902977799963 0.6806799836716307
 0.6806799836716307 0.6806799836716307
 0.6788319872087765 0.6806799836716307
 0.6796699001146154 0.6806799836716307
 0.6806799836716307 0.6806799836716307
 0.6803552524737293 0.6806799836716307
 0.6805206175174645 0.6806799836716307
 0.6806799836716307 0.6806799836716307
 0.6798229009683501 0.6806799836716307
 0.6760816070369448 0.6806799836716307
 0.6801252767973129 0.6806799836716307
 0.6790757978215081 0.6806799836716307
 0.6800011701882129 0.6806799836716307
 0.6797897070480124 0.6806799836716307
 0.6802954509992963 0.6806799836716307
 0.6806799836716307 0.6806799836716307
 0.6762811361141685 0.6806799836716307
 0.6806799836716307 0.6806799836716307
 0.6783165408124696 0.6806799836716307
 0.6801119228555335 0.6806799836716307
 0.6806799836716307 0.6806799836716307
 0.6797133558091291 0.6806799836716307
 0.6793171252098786 0.6806799836716307
 0.6804964235879605 0.6806799836716307
 0.6805714961758796 0.6806799836716307
 0.6532381922403436 0.6806799836716307
 0.6791650014504315 0.6806799836716307
 0.6801432870345517 0.6806799836716307
 0.6799438229094821 0.6806799836716307
 0.6806799836716307 0.6806799836716307
 0.6806448865550211 0.6806799836716307
 0.6806799836716307 0.6806799836716307
 0.6806799836716307 0.6806799836716307
 0.6804888677884136 0.6806799836716307
 0.6806799836716307 0.6806799836716307
 0.6739267945282088 0.6806799836716307
 0.6806666174241934 0.6806799836716307
 0.6806799836716307 0.6806799836716307
 0.6806799836716307 0.6806799836716307
 0.6787155487268129 0.6806799836716307
 0.6806799836716307 0.6806799836716307
 0.6801483688080188 0.6806799836716307
 0.677031123770085 0.6806799836716307
 0.679594882787638 0.6806799836716307
 0.6778177773629759 0.6806799836716307
 0.6802450834428608 0.6806799836716307
 0.680580417544393 0.6806799836716307
 0.6789843670743382 0.6806799836716307
 0.6795202185675425 0.6806799836716307
 0.6806799836716307 0.6806799836716307
 0.6791949860225104 0.6806799836716307
 0.6806799836716307 0.6806799836716307
 0.6789314286715619 0.6806799836716307
 0.6806799836716307 0.6806799836716307
 0.6804016097852386 0.6806799836716307
 0.6792496703484544 0.6806799836716307
 0.6768635606353414 0.6806799836716307
 0.679544634087023 0.6806799836716307
 0.6806066090002206 0.6806799836716307
 0.6789855635471886 0.6806799836716307
 0.6770803640007691 0.6806799836716307
 0.6774751380436491 0.6806799836716307
 0.6749394615545961 0.6806799836716307
 0.6806799836716307 0.6806799836716307
 0.6796932378984211 0.6806799836716307
 0.6802719247534904 0.6806799836716307
 0.6805591816896484 0.6806799836716307
 0.6754332817014475 0.6806799836716307
 0.6779042207207381 0.6806799836716307
 0.6799740982558775 0.6806799836716307
 0.6802584350316031 0.6806799836716307
 0.679693860419622 0.6806799836716307
 0.6806799836716307 0.6806799836716307
 0.6806799836716307 0.6806799836716307
 0.6806799836716307 0.6806799836716307
 0.6804494840006898 0.6806799836716307
 0.6778250866128837 0.6806799836716307
 0.6769092124552804 0.6806799836716307
 0.6744845835272035 0.6806799836716307
 0.6804272191628594 0.6806799836716307
 0.6786930181293236 0.6806799836716307
 0.6750319843537345 0.6806799836716307
 0.6806799836716307 0.6806799836716307
 0.6806799836716307 0.6806799836716307
 0.6806799836716307 0.6806799836716307
 0.6806799836716307 0.6806799836716307
 0.680145038453408 0.6806799836716307
 0.6803334978383659 0.6806799836716307
 0.6803171457452957 0.6806799836716307
 0.6806799836716307 0.6806799836716307
 0.6801613705939926 0.6806799836716307
 0.6792689780418374 0.6806799836716307
 0.6804013255569686 0.6806799836716307
 0.6798911149425012 0.6806799836716307
 0.6764496674796836 0.6806799836716307
 0.6806799836716307 0.6806799836716307
 0.6775571020246476 0.6806799836716307
 0.6804458391679568 0.6806799836716307
 0.6790196508781505 0.6806799836716307
 0.6806799836716307 0.6806799836716307
 0.6783624680993079 0.6806799836716307
 0.6167685112726996 0.6806799836716307
 0.6786449129301337 0.6806799836716307
 0.6761349587732044 0.6806799836716307
 0.6798729835685262 0.6806799836716307
 0.6432875070397301 0.6806799836716307
 0.6806799836716307 0.6806799836716307
 0.6183336893746164 0.6806799836716307
 0.674139740279908 0.6806799836716307
 0.6802200889506305 0.6806799836716307
 0.6800157522372533 0.6806799836716307
 0.615231098724673 0.6806799836716307
 0.6191745182013736 0.6806799836716307
 0.6764899241953706 0.6806799836716307
 0.6150943273120111 0.6806799836716307
 0.6621285244813135 0.6806799836716307
 0.6190246992084315 0.6806799836716307
 0.6785713277404536 0.6806799836716307
 0.6129768375522074 0.6806799836716307
 0.6242843335721586 0.6806799836716307
 0.6653148730695582 0.6806799836716307
 0.6766494334358808 0.6806799836716307
 0.6173545641533209 0.6806799836716307
 0.6181952500033115 0.6806799836716307
 0.6746318727453576 0.6806799836716307
 0.6806799836716307 0.6806799836716307
 0.676731351664084 0.6806799836716307
 0.6782991546095585 0.6806799836716307
 0.6796197254134304 0.6806799836716307
 0.6792077683693593 0.6806799836716307
 0.6806799836716307 0.6806799836716307
 0.6747006773157129 0.6806799836716307
 0.6805070265751565 0.6806799836716307
 0.670565255914549 0.6806799836716307
 0.6765242702012509 0.6806799836716307
 0.6757543558484019 0.6806799836716307
 0.6796104177649238 0.6806799836716307
 0.6783879694313251 0.6806799836716307
 0.6804514353238947 0.6806799836716307
 0.6806799836716307 0.6806799836716307
 0.6786045786008505 0.6806799836716307
 0.6806799836716307 0.6806799836716307
 0.6780578969584286 0.6806799836716307
 0.6806799836716307 0.6806799836716307
 0.6802038473778786 0.6806799836716307
 0.6806799836716307 0.6806799836716307
 0.6754650253687688 0.6806799836716307
 0.6802045892854859 0.6806799836716307
 0.6805676309079031 0.6806799836716307
 0.6806799836716307 0.6806799836716307
 0.677513655142943 0.6806799836716307
 0.6806799836716307 0.6806799836716307
 0.6791595432586418 0.6806799836716307
 0.6797956241102252 0.6806799836716307
 0.6778281818474199 0.6806799836716307
 0.6762817503329361 0.6806799836716307
 0.679745123680263 0.6806799836716307
 0.6756295360304756 0.6806799836716307
 0.6782073047115484 0.6806799836716307
 0.6797366130318798 0.6806799836716307
 0.6713812385247758 0.6806799836716307
 0.6796051875326138 0.6806799836716307
 0.6762391661595895 0.6806799836716307
 0.679543401908402 0.6806799836716307
 0.6802400381339357 0.6806799836716307
 0.6801311779194661 0.6806799836716307
 0.6806799836716307 0.6806799836716307
 0.6805548037904254 0.6806799836716307
 0.6804242848997031 0.6806799836716307
 0.6805305412409146 0.6806799836716307
 0.6774613204280748 0.6806799836716307
 0.6802290262734384 0.6806799836716307
 0.6803265159136097 0.6806799836716307
 0.6806799836716307 0.6806799836716307
 0.6802506217521034 0.6806799836716307
 0.6790783162384721 0.6806799836716307
 0.6806799836716307 0.6806799836716307
 0.6794714925266017 0.6806799836716307
 0.6797446263844035 0.6806799836716307
 0.6781732239107621 0.6806799836716307
 0.6795191842204892 0.6806799836716307
 0.6785272867987036 0.6806799836716307
 0.6806799836716307 0.6806799836716307
 0.6787228195639632 0.6806799836716307
 0.679038482075411 0.6806799836716307
 0.6796590185497928 0.6806799836716307
 0.6793899508309922 0.6806799836716307
 0.6798617513888012 0.6806799836716307
 0.6806799836716307 0.6806799836716307
 0.6806799836716307 0.6806799836716307
 0.6790938385557008 0.6806799836716307
 0.6781368926111371 0.6806799836716307
 0.6799596080007199 0.6806799836716307
 0.6787312499786806 0.6806799836716307
 0.6789706654552229 0.6806799836716307
 0.6760756824867684 0.6806799836716307
 0.6806243856689074 0.6806799836716307
 0.6781908635151639 0.6806799836716307
 0.6795555887904903 0.6806799836716307
 0.6793631523622043 0.6806799836716307
 0.680288544720507 0.6806799836716307
 0.6794758480335569 0.6806799836716307
 0.6741934000090551 0.6806799836716307
 0.6784417498381389 0.6806799836716307
 0.6806161521496381 0.6806799836716307
 0.6806799836716307 0.6806799836716307
 0.6689350533236893 0.6806799836716307
 0.6149606874974498 0.6806799836716307
 0.6801521011502762 0.6806799836716307
 0.6795911549082134 0.6806799836716307
 0.678401371588547 0.6806799836716307
 0.6797449785134941 0.6806799836716307
 0.6798855261117418 0.6806799836716307
 0.6802094545983858 0.6806799836716307
 0.6806667193669071 0.6806799836716307
 0.6790228822085161 0.6806799836716307
 0.6797468159013569 0.6806799836716307
 0.680205880425829 0.6806799836716307
 0.6788979193629171 0.6806799836716307
 0.6785056015688844 0.6806799836716307
 0.6728006718992093 0.6806799836716307
 0.6771167813986496 0.6806799836716307
 0.6780451928969892 0.6806799836716307
 0.6788879707921621 0.6806799836716307
 0.6806787695565624 0.6806799836716307
 0.6806799836716307 0.6806799836716307
 0.6806799836716307 0.6806799836716307
 0.6789753911668408 0.6806799836716307
 0.6806799836716307 0.6806799836716307
 0.6797962263825335 0.6806799836716307
 0.6767989897288045 0.6806799836716307
 0.6784524018362442 0.6806799836716307
 0.6805328261527788 0.6806799836716307
 0.6806799836716307 0.6806799836716307
 0.6750688364491771 0.6806799836716307
 0.6797728963283656 0.6806799836716307
 0.6806799836716307 0.6806799836716307
 0.678988958044103 0.6806799836716307
 0.6806799836716307 0.6806799836716307
 0.675966209231651 0.6806799836716307
 0.6795273398871295 0.6806799836716307
 0.6806799836716307 0.6806799836716307
 0.6806799836716307 0.6806799836716307
 0.6762076353244457 0.6806799836716307
 0.6802747387338907 0.6806799836716307
 0.6771011850402661 0.6806799836716307
 0.6799107634918217 0.6806799836716307
 0.6709710898097152 0.6806799836716307
 0.6793356679680012 0.6806799836716307
 0.6806799836716307 0.6806799836716307
 0.6641064050899426 0.6806799836716307
 0.6759346624822835 0.6806799836716307
 0.6800129416844343 0.6806799836716307
 0.6727130238768747 0.6806799836716307
 0.6793134778270844 0.6806799836716307
 0.6803541290840667 0.6806799836716307
 0.6787238998322651 0.6806799836716307
 0.6772847677504661 0.6806799836716307
 0.6785506998235897 0.6806799836716307
 0.678243899382038 0.6806799836716307
 0.6806799836716307 0.6806799836716307
 0.6797471544472066 0.6806799836716307
 0.6758191936423906 0.6806799836716307
 0.6805649390850059 0.6806799836716307
 0.6758344003109342 0.6806799836716307
 0.679003796846534 0.6806799836716307
 0.6806799836716307 0.6806799836716307
 0.6787227884286151 0.6806799836716307
 0.6761200491327296 0.6806799836716307
 0.6759729395442566 0.6806799836716307
 0.6806799836716307 0.6806799836716307
 0.6805705860437993 0.6806799836716307
 0.6772367627730135 0.6806799836716307
 0.6802159874456815 0.6806799836716307
 0.6803822509767743 0.6806799836716307
 0.678905419146528 0.6806799836716307
 0.6806799836716307 0.6806799836716307
 0.6794358240142655 0.6806799836716307
 0.6805434745225084 0.6806799836716307
 0.6751635021663218 0.6806799836716307
 0.6806799836716307 0.6806799836716307
 0.673442754869148 0.6806799836716307
 0.6799113259232834 0.6806799836716307
 0.6700448058912257 0.6806799836716307
 0.679168290413612 0.6806799836716307
 0.6787341939496101 0.6806799836716307
 0.6806793004628231 0.6806799836716307
 0.6801507729723794 0.6806799836716307
 0.6749788485413344 0.6806799836716307
 0.6787935869271131 0.6806799836716307
 0.6806799836716307 0.6806799836716307
 0.6800255855910646 0.6806799836716307
 0.6782711684694631 0.6806799836716307
 0.6806799836716307 0.6806799836716307
 0.6769110654805153 0.6806799836716307
 0.6797348784839058 0.6806799836716307
 0.6750684207808856 0.6806799836716307
 0.6795354739784667 0.6806799836716307
 0.6802501098436839 0.6806799836716307
 0.6797176817109103 0.6806799836716307
 0.678895361105284 0.6806799836716307
 0.6806799836716307 0.6806799836716307
 0.6802746602140006 0.6806799836716307
 0.6805326131059969 0.6806799836716307
 0.6753891751179529 0.6806799836716307
 0.6788884925932149 0.6806799836716307
 0.6771837523820265 0.6806799836716307
 0.6806799836716307 0.6806799836716307
 0.6797659192685941 0.6806799836716307
 0.6806504278945169 0.6806799836716307
 0.6781824845507515 0.6806799836716307
 0.6792579409520143 0.6806799836716307
 0.6801855225506499 0.6806799836716307
 0.6778010732325096 0.6806799836716307
 0.680058215945903 0.6806799836716307
 0.6794078327858559 0.6806799836716307
 0.680068425792396 0.6806799836716307
 0.6781749093734857 0.6806799836716307
 0.6796105587320223 0.6806799836716307
 0.6795844756699443 0.6806799836716307
 0.6672587802980908 0.6806799836716307
 0.6736255690918643 0.6806799836716307
 0.6805267178828541 0.6806799836716307
 0.6793628715733268 0.6806799836716307
 0.6806296559039428 0.6806799836716307
 0.6767134224847333 0.6806799836716307
 0.6758648122751734 0.6806799836716307
 0.6738013749752859 0.6806799836716307
 0.6768901987200568 0.6806799836716307
 0.6806799836716307 0.6806799836716307
 0.675821606242873 0.6806799836716307
 0.6806799836716307 0.6806799836716307
 0.6789031775212925 0.6806799836716307
 0.6762020376502806 0.6806799836716307
 0.6806799836716307 0.6806799836716307
 0.6806799836716307 0.6806799836716307
 0.6801349911111647 0.6806799836716307
 0.6240584169475365 0.6806799836716307
 0.6806799836716307 0.6806799836716307
 0.6800999576068459 0.6806799836716307
 0.6754770947262273 0.6806799836716307
 0.6794960031337859 0.6806799836716307
 0.6806799836716307 0.6806799836716307
 0.6732397416977802 0.6806799836716307
 0.6799584327466129 0.6806799836716307
 0.6783979764974813 0.6806799836716307
 0.6765354877230745 0.6806799836716307
 0.6803070273930149 0.6806799836716307
 0.680521689924513 0.6806799836716307
 0.6806799836716307 0.6806799836716307
 0.6789811159962003 0.6806799836716307
 0.6802078209637299 0.6806799836716307
 0.6768433882682623 0.6806799836716307
 0.6803953476328773 0.6806799836716307
 0.679176655371782 0.6806799836716307
 0.6806799836716307 0.6806799836716307
 0.6803572789214365 0.6806799836716307
 0.6778172454786267 0.6806799836716307
 0.6805450197598086 0.6806799836716307
 0.6806799836716307 0.6806799836716307
 0.6806108149380842 0.6806799836716307
 0.6801677086339951 0.6806799836716307
 0.6802208022156409 0.6806799836716307
 0.6794591143599327 0.6806799836716307
 0.6743253110858595 0.6806799836716307
 0.6792397172827682 0.6806799836716307
 0.6758099137590088 0.6806799836716307
 0.6764666647904098 0.6806799836716307
 0.6806799836716307 0.6806799836716307
 0.6777490273941812 0.6806799836716307
 0.6806799836716307 0.6806799836716307
 0.6786667795165768 0.6806799836716307
 0.6783852142757072 0.6806799836716307
 0.6806799836716307 0.6806799836716307
 0.6768058103967476 0.6806799836716307
 0.6769498389499387 0.6806799836716307
 0.6806799836716307 0.6806799836716307
 0.6780303386316021 0.6806799836716307
 0.6802676037421005 0.6806799836716307
 0.6744372043740121 0.6806799836716307
 0.6691357274262664 0.6806799836716307
 0.6793431191491386 0.6806799836716307
 0.6718547706974769 0.6806799836716307
 0.6768833789039088 0.6806799836716307
 0.6735679899190753 0.6806799836716307
 0.6744969037903317 0.6806799836716307
 0.6806799836716307 0.6806799836716307
 0.6806799836716307 0.6806799836716307
 0.6754651958658739 0.6806799836716307
 0.6802838929831025 0.6806799836716307
 0.6803560066601263 0.6806799836716307
 0.6806799836716307 0.6806799836716307
 0.6758891374479685 0.6806799836716307
 0.6806274094743974 0.6806799836716307
 0.6783966684381619 0.6806799836716307
 0.6806799836716307 0.6806799836716307
 0.6800509696142851 0.6806799836716307
 0.6806799836716307 0.6806799836716307
 0.6806799836716307 0.6806799836716307
 0.6806799836716307 0.6806799836716307
 0.6806799836716307 0.6806799836716307
 0.6806799836716307 0.6806799836716307
 0.6773810044928822 0.6806799836716307
 0.6806785014222185 0.6806799836716307
 0.6798439554242991 0.6806799836716307
 0.6753664123580813 0.6806799836716307
 0.6806799836716307 0.6806799836716307
 0.6806799836716307 0.6806799836716307
 0.6806799836716307 0.6806799836716307
 0.6796731820211306 0.6806799836716307
 0.6799384351732833 0.6806799836716307
 0.6797803670943263 0.6806799836716307
 0.6793880100262597 0.6806799836716307
 0.6803181290040622 0.6806799836716307
 0.6805539096761447 0.6806799836716307
 0.679330821215457 0.6806799836716307
 0.6801462322562142 0.6806799836716307
 0.6777399616204286 0.6806799836716307
 0.6806799836716307 0.6806799836716307
 0.6735650263526362 0.6806799836716307
 0.6806633733336791 0.6806799836716307
 0.6799440352389631 0.6806799836716307
 0.6806799836716307 0.6806799836716307
 0.6791260609422127 0.6806799836716307
 0.6806799836716307 0.6806799836716307
 0.6805200395654429 0.6806799836716307
 0.6806799836716307 0.6806799836716307
 0.6806799836716307 0.6806799836716307
 0.680168134554878 0.6806799836716307
 0.6772070416511772 0.6806799836716307
 0.6806799836716307 0.6806799836716307
 0.6713987557171842 0.6806799836716307
 0.6788634290412099 0.6806799836716307
 0.6798908182737582 0.6806799836716307
 0.6802232577016486 0.6806799836716307
 0.6800816360524562 0.6806799836716307
 0.6752024107523427 0.6806799836716307
 0.6806799836716307 0.6806799836716307
 0.6799234171486827 0.6806799836716307
 0.6796759963166371 0.6806799836716307
 0.6806799836716307 0.6806799836716307
 0.680127505814706 0.6806799836716307
 0.677450135709827 0.6806799836716307
 0.6800127323979323 0.6806799836716307
 0.6775972350213466 0.6806799836716307
 0.6803240362667025 0.6806799836716307
 0.6797535883053502 0.6806799836716307
 0.6806799836716307 0.6806799836716307
 0.6806799836716307 0.6806799836716307
 0.679212664826906 0.6806799836716307
 0.6796275373002292 0.6806799836716307
 0.680658838597467 0.6806799836716307