# Created by Octave 4.0.0, Tue May 15 11:52:03 2018 CEST <olethros@olethros-OptiPlex-9010>
# name: results
# type: struct
# ndims: 2
 1 5
# length: 8
# name: options
# type: cell
# rows: 1
# columns: 5
# name: <cell-element>
# type: scalar struct
# ndims: 2
 1 1
# length: 8
# name: A
# type: scalar
2


# name: X
# type: scalar
8


# name: Y
# type: scalar
2


# name: Z
# type: scalar
2


# name: lambda
# type: scalar
0


# name: n_iter
# type: scalar
10000


# name: horizon
# type: scalar
1000


# name: n_samples
# type: scalar
16





# name: <cell-element>
# type: scalar struct
# ndims: 2
 1 1
# length: 8
# name: A
# type: scalar
2


# name: X
# type: scalar
8


# name: Y
# type: scalar
2


# name: Z
# type: scalar
2


# name: lambda
# type: scalar
0.25


# name: n_iter
# type: scalar
10000


# name: horizon
# type: scalar
1000


# name: n_samples
# type: scalar
16





# name: <cell-element>
# type: scalar struct
# ndims: 2
 1 1
# length: 8
# name: A
# type: scalar
2


# name: X
# type: scalar
8


# name: Y
# type: scalar
2


# name: Z
# type: scalar
2


# name: lambda
# type: scalar
0.5


# name: n_iter
# type: scalar
10000


# name: horizon
# type: scalar
1000


# name: n_samples
# type: scalar
16





# name: <cell-element>
# type: scalar struct
# ndims: 2
 1 1
# length: 8
# name: A
# type: scalar
2


# name: X
# type: scalar
8


# name: Y
# type: scalar
2


# name: Z
# type: scalar
2


# name: lambda
# type: scalar
0.75


# name: n_iter
# type: scalar
10000


# name: horizon
# type: scalar
1000


# name: n_samples
# type: scalar
16





# name: <cell-element>
# type: scalar struct
# ndims: 2
 1 1
# length: 8
# name: A
# type: scalar
2


# name: X
# type: scalar
8


# name: Y
# type: scalar
2


# name: Z
# type: scalar
2


# name: lambda
# type: scalar
1


# name: n_iter
# type: scalar
10000


# name: horizon
# type: scalar
1000


# name: n_samples
# type: scalar
16







# name: PU
# type: cell
# rows: 1
# columns: 5
# name: <cell-element>
# type: matrix
# rows: 1000
# columns: 2
 0.4011312987015115 0.5472709943741374
 0.492096765230823 0.5503470863728632
 0.5359185521396771 0.4786832640249686
 0.455777385451436 0.5072885660487024
 0.5833200195623089 0.5138956569038653
 0.4471268380970423 0.4749935579618267
 0.6051065125700106 0.4977595058140168
 0.5856669951363691 0.4768799619283532
 0.4802724006304601 0.5091323454357783
 0.5851168169325196 0.5211676040079455
 0.4764068855972357 0.5332578606991938
 0.5033548347766696 0.5559749347909153
 0.5899799371070823 0.6027665598738658
 0.5479565696897641 0.6244737018378006
 0.6684614247995823 0.5616177923936784
 0.6227397114736322 0.6026649381935593
 0.626954163168309 0.5834532460888956
 0.545967241564458 0.5956502196262042
 0.6276708096522947 0.5674973648024879
 0.5471155677097806 0.5796646847957588
 0.5847991197054372 0.5555694110299552
 0.5880039040388523 0.6072829916566455
 0.544632727372896 0.6147316566101558
 0.6257295711242407 0.6068174594098357
 0.6706300695366472 0.5984315598053676
 0.6697553940839422 0.5967259783577015
 0.6674246327311718 0.597527832980397
 0.625452794573385 0.5826702320089603
 0.6687599720298192 0.5718008101074556
 0.660688636402897 0.5715719875281063
 0.5434559903318863 0.5833882336083797
 0.5487054014688467 0.564721543248377
 0.6775531214825188 0.5959887132671882
 0.5470389068047582 0.5902940219027796
 0.5481854718005713 0.5818495804639708
 0.6688836175254033 0.5965995985288948
 0.6001606549082983 0.589309737256095
 0.6676499330727009 0.5762584775232574
 0.6672212558252998 0.5526447088454514
 0.6258640921079685 0.5904329648511588
 0.5892909357137546 0.612974027570536
 0.6006318833596747 0.5471322951874036
 0.6280316722040832 0.5886357209524554
 0.5892410346033125 0.5822367535438421
 0.5921544341630729 0.6009615435292304
 0.5417278139127514 0.5549191503212332
 0.5515018606918052 0.6422057653661227
 0.6405031478722293 0.5520743237031596
 0.546610807812684 0.6058933960086005
 0.627947632667365 0.5579684668064628
 0.5612236828609073 0.563764578407689
 0.641837263718365 0.563324774511796
 0.6386677241883582 0.6223796602942012
 0.6388832917623093 0.576378195042513
 0.5486608169594208 0.585242972489754
 0.6346829288766115 0.5670383336700775
 0.6209263904038316 0.5504571970268229
 0.6283692664918108 0.5771870538398086
 0.6387480554068325 0.6193237156936706
 0.6392923359997903 0.5715977486925345
 0.6392169492453973 0.594418361222446
 0.6278002042144369 0.5808075844323863
 0.6270136928016696 0.5931926852414318
 0.6279036338669879 0.5862037167007212
 0.6271579370715525 0.6159108790980217
 0.6696564382340434 0.5883672435003574
 0.6194186161923126 0.624555051119713
 0.6701017374237279 0.6646250580605024
 0.6724008898885037 0.6382899312218233
 0.668805659425652 0.6307948016577135
 0.6687178704123602 0.627363891063862
 0.6823925575984668 0.6668615354045029
 0.6366941613349818 0.6670385343640844
 0.6294185915779453 0.627684845329185
 0.6217935517976433 0.6492014733776295
 0.6255517030179559 0.638547554030808
 0.6335757808333495 0.6388997232785261
 0.6130724974816917 0.6279647101906324
 0.6813591899387469 0.6455831846397511
 0.6422706104947843 0.6263275374308458
 0.6645916652462074 0.646062307086829
 0.6697603149641982 0.6279885824872506
 0.6289147420495584 0.6526992280546883
 0.6287119915767171 0.6489257572748024
 0.628893590649112 0.658675866445205
 0.682982300324071 0.6642308848104721
 0.6684372074137959 0.648096602050388
 0.6663316954965196 0.6587850596659475
 0.6841953191081215 0.6493240112803217
 0.6272994258340238 0.6342479209275473
 0.6437136210273335 0.6441694818206356
 0.6842726293146434 0.6380865890759507
 0.6627451261669524 0.6534564161369437
 0.671920703883631 0.6409972893980348
 0.6413380061688441 0.6587445991228786
 0.6835297332521653 0.6371178456638033
 0.6717048956162522 0.6607034063264273
 0.6839743688611633 0.6607034063264273
 0.6849478772348432 0.6607034063264273
 0.683280062966318 0.6607034063264273
 0.6658214428365888 0.6607034063264273
 0.6818141046484151 0.6607034063264273
 0.6699064306743866 0.6607034063264273
 0.6823589282360227 0.6607034063264273
 0.6838413255192176 0.6607034063264273
 0.6718062704020804 0.6607034063264273
 0.6686830208365143 0.6607034063264273
 0.6843077134205449 0.6607034063264273
 0.6848223773404032 0.6607034063264273
 0.6711445898232545 0.6607034063264273
 0.6713318301835161 0.6607034063264273
 0.6707872876691677 0.6607034063264273
 0.6705367840164715 0.6607034063264273
 0.6844424484437093 0.6607034063264273
 0.6852786695708835 0.6607034063264273
 0.684516438257984 0.6607034063264273
 0.641774417736918 0.6607034063264273
 0.6844406131692695 0.6607034063264273
 0.6699175310779604 0.6607034063264273
 0.6721179329272631 0.6607034063264273
 0.6846838483170941 0.6607034063264273
 0.6646302613192571 0.6607034063264273
 0.683804094424837 0.6607034063264273
 0.6843985768667246 0.6607034063264273
 0.6689689488412671 0.6607034063264273
 0.6844014396302091 0.6607034063264273
 0.6838796642491549 0.6607034063264273
 0.685203460668716 0.6607034063264273
 0.6412548313606636 0.6607034063264273
 0.6810023513708168 0.6607034063264273
 0.6680573700977772 0.6607034063264273
 0.6852786695708835 0.6607034063264273
 0.6793868162880545 0.6607034063264273
 0.6808017344599985 0.6607034063264273
 0.6790270044551492 0.6607034063264273
 0.6852786695708835 0.6607034063264273
 0.6668437043797784 0.6607034063264273
 0.6849033177785026 0.6607034063264273
 0.6846935521970678 0.6607034063264273
 0.685347264296166 0.6607034063264273
 0.6820448611745544 0.6607034063264273
 0.6853853777039927 0.6607034063264273
 0.6840937006225863 0.6607034063264273
 0.6842069265147396 0.6607034063264273
 0.6836771309743068 0.6607034063264273
 0.6852786695708835 0.6607034063264273
 0.6851942070233337 0.6607034063264273
 0.6840643450551556 0.6607034063264273
 0.6833430497261297 0.6607034063264273
 0.6824675178008208 0.6607034063264273
 0.6834141378247316 0.6607034063264273
 0.685112326257463 0.6607034063264273
 0.6847445993665956 0.6607034063264273
 0.6810719872247721 0.6607034063264273
 0.683473814450028 0.6607034063264273
 0.6852786695708835 0.6607034063264273
 0.6852786695708835 0.6607034063264273
 0.6848595586149431 0.6607034063264273
 0.6851851013429173 0.6607034063264273
 0.6842356864720773 0.6607034063264273
 0.6851304657012609 0.6607034063264273
 0.644076150566516 0.6607034063264273
 0.6846352532442568 0.6607034063264273
 0.6837936482623734 0.6607034063264273
 0.6831821867774844 0.6607034063264273
 0.6850594775557901 0.6607034063264273
 0.684093867689505 0.6607034063264273
 0.6835321420108105 0.6607034063264273
 0.6833004740746054 0.6607034063264273
 0.6846309635943342 0.6607034063264273
 0.6849702446570305 0.6607034063264273
 0.6832499790068728 0.6607034063264273
 0.6823276980145764 0.6607034063264273
 0.6852684277287278 0.6607034063264273
 0.6845704076675907 0.6607034063264273
 0.6786560154179009 0.6607034063264273
 0.6840299905729128 0.6607034063264273
 0.6811600435638163 0.6607034063264273
 0.6842529052067284 0.6607034063264273
 0.6026051469569165 0.6607034063264273
 0.6843999348669972 0.6607034063264273
 0.6832651094913628 0.6607034063264273
 0.684007839349239 0.6607034063264273
 0.6834730077470363 0.6607034063264273
 0.6832639376575314 0.6607034063264273
 0.6849395148032282 0.6607034063264273
 0.6846658588101875 0.6607034063264273
 0.684896679128648 0.6607034063264273
 0.6786121783503113 0.6607034063264273
 0.6852786695708835 0.6607034063264273
 0.6852786695708835 0.6607034063264273
 0.6836659584234153 0.6607034063264273
 0.684991450924745 0.6607034063264273
 0.6766706540522943 0.6607034063264273
 0.6839660198015347 0.6607034063264273
 0.6830582702916701 0.6607034063264273
 0.6821905623518298 0.6607034063264273
 0.6704412218705817 0.6607034063264273
 0.6433570793260031 0.6607034063264273
 0.6841819310681589 0.6607034063264273
 0.6849298914819869 0.6607034063264273
 0.6834292219632698 0.6607034063264273
 0.6839203545064507 0.6607034063264273
 0.6825779408545771 0.6607034063264273
 0.6842094049433491 0.6607034063264273
 0.6851928789574191 0.6607034063264273
 0.6847396333120759 0.6607034063264273
 0.6833576710626105 0.6607034063264273
 0.6852786695708835 0.6607034063264273
 0.6819594688966861 0.6607034063264273
 0.6839920918344702 0.6607034063264273
 0.6835542990005883 0.6607034063264273
 0.6851356735217577 0.6607034063264273
 0.6813323629335304 0.6607034063264273
 0.6852786695708835 0.6607034063264273
 0.6850943306609475 0.6607034063264273
 0.68476468399736 0.6607034063264273
 0.6795903272440417 0.6607034063264273
 0.6796102658814847 0.6607034063264273
 0.6824360300474386 0.6607034063264273
 0.6852786695708835 0.6607034063264273
 0.6846033893554128 0.6607034063264273
 0.6851151232263393 0.6607034063264273
 0.6841705193582234 0.6607034063264273
 0.6814893645943773 0.6607034063264273
 0.6799195670663438 0.6607034063264273
 0.6834811081003531 0.6607034063264273
 0.6842216526522039 0.6607034063264273
 0.6850057668538394 0.6607034063264273
 0.6831310166024797 0.6607034063264273
 0.6840856145482437 0.6607034063264273
 0.683473896320849 0.6607034063264273
 0.6834313521795009 0.6607034063264273
 0.6851230823369082 0.6607034063264273
 0.6832637047374015 0.6607034063264273
 0.6852786695708835 0.6607034063264273
 0.6852786695708835 0.6607034063264273
 0.6852786695708835 0.6607034063264273
 0.6832989996920481 0.6607034063264273
 0.6844958957884832 0.6607034063264273
 0.6851820762860963 0.6607034063264273
 0.6808849457999808 0.6607034063264273
 0.6820170215269141 0.6607034063264273
 0.6826574103665247 0.6607034063264273
 0.6848924636928055 0.6607034063264273
 0.6848826047137366 0.6607034063264273
 0.684240332575668 0.6607034063264273
 0.68429384568861 0.6607034063264273
 0.6845645686467309 0.6607034063264273
 0.6838822622481022 0.6607034063264273
 0.6836371098350702 0.6607034063264273
 0.677517777381874 0.6607034063264273
 0.6844360508774077 0.6607034063264273
 0.683314195158141 0.6607034063264273
 0.6743504986436059 0.6607034063264273
 0.6848348093791717 0.6607034063264273
 0.6822265507968408 0.6607034063264273
 0.6847666513766579 0.6607034063264273
 0.6831496764843713 0.6607034063264273
 0.6827539784671132 0.6607034063264273
 0.6852786695708835 0.6607034063264273
 0.6839613038496006 0.6607034063264273
 0.6823052588275978 0.6607034063264273
 0.6852786695708835 0.6607034063264273
 0.6785185678037851 0.6607034063264273
 0.6819163345047247 0.6607034063264273
 0.6832564239121268 0.6607034063264273
 0.6709535242665934 0.6607034063264273
 0.6852786695708835 0.6607034063264273
 0.6833569588553883 0.6607034063264273
 0.682382297449263 0.6607034063264273
 0.6814947056922944 0.6607034063264273
 0.6853201056154258 0.6607034063264273
 0.6747792853383792 0.6607034063264273
 0.6851812076364423 0.6607034063264273
 0.6852786695708835 0.6607034063264273
 0.6848077575489808 0.6607034063264273
 0.676807057110964 0.6607034063264273
 0.6851156683465602 0.6607034063264273
 0.6852231199644009 0.6607034063264273
 0.6850971434649087 0.6607034063264273
 0.6846080644229379 0.6607034063264273
 0.6778831095720356 0.6607034063264273
 0.6836653979557095 0.6607034063264273
 0.6852786695708835 0.6607034063264273
 0.6845013004078231 0.6607034063264273
 0.6852786695708835 0.6607034063264273
 0.6848346034639864 0.6607034063264273
 0.6846005335451451 0.6607034063264273
 0.6807973217821972 0.6607034063264273
 0.6749248308429491 0.6607034063264273
 0.6852717386319118 0.6607034063264273
 0.6849892299787222 0.6607034063264273
 0.6852786695708835 0.6607034063264273
 0.6850456238857973 0.6607034063264273
 0.64047212433246 0.6607034063264273
 0.6816654431492666 0.6607034063264273
 0.6845756073167033 0.6607034063264273
 0.6851494847366036 0.6607034063264273
 0.6844020586266327 0.6607034063264273
 0.6804351648892638 0.6607034063264273
 0.6847139490389849 0.6607034063264273
 0.6833206531709841 0.6607034063264273
 0.6827729678220351 0.6607034063264273
 0.6831596110651927 0.6607034063264273
 0.6840601961953154 0.6607034063264273
 0.684286488509335 0.6607034063264273
 0.6850594922805552 0.6607034063264273
 0.6844369248927573 0.6607034063264273
 0.6814795031996674 0.6607034063264273
 0.6850317596095561 0.6607034063264273
 0.6850557127048017 0.6607034063264273
 0.6830034248584838 0.6607034063264273
 0.6853371501653073 0.6607034063264273
 0.6825089496650814 0.6607034063264273
 0.6848329833066173 0.6607034063264273
 0.6829788177770789 0.6607034063264273
 0.6838961872598763 0.6607034063264273
 0.683540402624407 0.6607034063264273
 0.6795304949546728 0.6607034063264273
 0.6833497232529817 0.6607034063264273
 0.684677281292066 0.6607034063264273
 0.6852298914281461 0.6607034063264273
 0.6835136893313545 0.6607034063264273
 0.6835450305934181 0.6607034063264273
 0.6845725468489936 0.6607034063264273
 0.6846614578670042 0.6607034063264273
 0.6832439506033909 0.6607034063264273
 0.6821893771184855 0.6607034063264273
 0.6852786695708835 0.6607034063264273
 0.6853169032167139 0.6607034063264273
 0.6852643218283889 0.6607034063264273
 0.6844677708168563 0.6607034063264273
 0.6844613444462579 0.6607034063264273
 0.6696419766344169 0.6607034063264273
 0.6844054780207575 0.6607034063264273
 0.6851876780536663 0.6607034063264273
 0.6842909949952736 0.6607034063264273
 0.6848172488492452 0.6607034063264273
 0.68208026754883 0.6607034063264273
 0.6838586617107818 0.6607034063264273
 0.6834534284703984 0.6607034063264273
 0.6829691644861962 0.6607034063264273
 0.6831268155930585 0.6607034063264273
 0.685163706377669 0.6607034063264273
 0.6846500873284456 0.6607034063264273
 0.6847331733827964 0.6607034063264273
 0.6847988443497666 0.6607034063264273
 0.6849402016478709 0.6607034063264273
 0.6749534569485625 0.6607034063264273
 0.6816416654635112 0.6607034063264273
 0.6804664133173851 0.6607034063264273
 0.6817027895155243 0.6607034063264273
 0.683135484774357 0.6607034063264273
 0.6831344988143894 0.6607034063264273
 0.6840756478809952 0.6607034063264273
 0.6842577529869366 0.6607034063264273
 0.6852245335601224 0.6607034063264273
 0.6808983709437333 0.6607034063264273
 0.6852786695708835 0.6607034063264273
 0.6747980050782281 0.6607034063264273
 0.6802676394239535 0.6607034063264273
 0.6726145464352405 0.6607034063264273
 0.6852786695708835 0.6607034063264273
 0.6848591178268623 0.6607034063264273
 0.6787774833539155 0.6607034063264273
 0.6851474034916754 0.6607034063264273
 0.6849106604682398 0.6607034063264273
 0.6828663565645202 0.6607034063264273
 0.683904702527702 0.6607034063264273
 0.6852786695708835 0.6607034063264273
 0.6852786695708835 0.6607034063264273
 0.6827536733477818 0.6607034063264273
 0.684864650141232 0.6607034063264273
 0.6839544393451069 0.6607034063264273
 0.684746335491901 0.6607034063264273
 0.6852786695708835 0.6607034063264273
 0.6849751680826535 0.6607034063264273
 0.6836914692740859 0.6607034063264273
 0.6826414376458614 0.6607034063264273
 0.685089444846581 0.6607034063264273
 0.6851260361223046 0.6607034063264273
 0.6849572190335649 0.6607034063264273
 0.6842612811084436 0.6607034063264273
 0.6850297657494758 0.6607034063264273
 0.6779188506925705 0.6607034063264273
 0.6845445722071521 0.6607034063264273
 0.6852786695708835 0.6607034063264273
 0.6829897531460571 0.6607034063264273
 0.6849716784330587 0.6607034063264273
 0.684532878340872 0.6607034063264273
 0.6852786695708835 0.6607034063264273
 0.6827545982782905 0.6607034063264273
 0.6834548776869327 0.6607034063264273
 0.6852786695708835 0.6607034063264273
 0.6798555602006309 0.6607034063264273
 0.6812786054352529 0.6607034063264273
 0.6831806170751331 0.6607034063264273
 0.6852786695708835 0.6607034063264273
 0.6852786695708835 0.6607034063264273
 0.6821641897575675 0.6607034063264273
 0.6843268212968039 0.6607034063264273
 0.6840215296226074 0.6607034063264273
 0.6851628745929197 0.6607034063264273
 0.6849052731948315 0.6607034063264273
 0.6847396749613852 0.6607034063264273
 0.6852786695708835 0.6607034063264273
 0.6847029182990277 0.6607034063264273
 0.6832509978240477 0.6607034063264273
 0.6847393863687856 0.6607034063264273
 0.6844617675288633 0.6607034063264273
 0.6841117490640017 0.6607034063264273
 0.6843160640610768 0.6607034063264273
 0.6842664106480899 0.6607034063264273
 0.6851286974678827 0.6607034063264273
 0.683994936076775 0.6607034063264273
 0.6843635079987217 0.6607034063264273
 0.6841088022755294 0.6607034063264273
 0.6846959539625213 0.6607034063264273
 0.6851516236109809 0.6607034063264273
 0.6842876381881881 0.6607034063264273
 0.6850430111639942 0.6607034063264273
 0.6832798150774215 0.6607034063264273
 0.6852786695708835 0.6607034063264273
 0.684457023938948 0.6607034063264273
 0.6850190312153821 0.6607034063264273
 0.6835868007944472 0.6607034063264273
 0.6789465633254371 0.6607034063264273
 0.6847979855973602 0.6607034063264273
 0.6852786695708835 0.6607034063264273
 0.6851129092340844 0.6607034063264273
 0.6841037882229163 0.6607034063264273
 0.6852786695708835 0.6607034063264273
 0.6828114884079667 0.6607034063264273
 0.6852786695708835 0.6607034063264273
 0.684672959442457 0.6607034063264273
 0.6851319903572931 0.6607034063264273
 0.6843239045860173 0.6607034063264273
 0.6850724259009006 0.6607034063264273
 0.6847936857589804 0.6607034063264273
 0.6849628941217373 0.6607034063264273
 0.6852786695708835 0.6607034063264273
 0.6846136714921682 0.6607034063264273
 0.685337962923666 0.6607034063264273
 0.6822803696673373 0.6607034063264273
 0.6830165933464263 0.6607034063264273
 0.6852786695708835 0.6607034063264273
 0.6852786695708835 0.6607034063264273
 0.6789142676420268 0.6607034063264273
 0.6846608672220935 0.6607034063264273
 0.6852786695708835 0.6607034063264273
 0.6845241021905947 0.6607034063264273
 0.6840644465415103 0.6607034063264273
 0.6852786695708835 0.6607034063264273
 0.6852786695708835 0.6607034063264273
 0.6850909211805196 0.6607034063264273
 0.6851393682620384 0.6607034063264273
 0.6847525360514866 0.6607034063264273
 0.6852460997001111 0.6607034063264273
 0.6850024754415081 0.6607034063264273
 0.6842385371173003 0.6607034063264273
 0.6849256038367966 0.6607034063264273
 0.6852786695708835 0.6607034063264273
 0.6852786695708835 0.6607034063264273
 0.6815818789910499 0.6607034063264273
 0.6852786695708835 0.6607034063264273
 0.6848782856822182 0.6607034063264273
 0.6849966657829553 0.6607034063264273
 0.6852786695708835 0.6607034063264273
 0.685226935668639 0.6607034063264273
 0.6824454397585866 0.6607034063264273
 0.6851939724215441 0.6607034063264273
 0.685003809311824 0.6607034063264273
 0.6846447731563534 0.6607034063264273
 0.6847310734779422 0.6607034063264273
 0.6845345570686104 0.6607034063264273
 0.684221620799466 0.6607034063264273
 0.6852786695708835 0.6607034063264273
 0.6850312193031604 0.6607034063264273
 0.6837815446927403 0.6607034063264273
 0.6852786695708835 0.6607034063264273
 0.68481564324012 0.6607034063264273
 0.6832164474172383 0.6607034063264273
 0.6847204650161659 0.6607034063264273
 0.6850020674537446 0.6607034063264273
 0.6817439070791544 0.6607034063264273
 0.6852786695708835 0.6607034063264273
 0.6839680542209167 0.6607034063264273
 0.6849966035299317 0.6607034063264273
 0.6799095245735998 0.6607034063264273
 0.6848732598981652 0.6607034063264273
 0.6849156566219476 0.6607034063264273
 0.682962392159513 0.6607034063264273
 0.6840320039274151 0.6607034063264273
 0.685225906485752 0.6607034063264273
 0.6852786695708835 0.6607034063264273
 0.6847058360731628 0.6607034063264273
 0.684913491453377 0.6607034063264273
 0.6852786695708835 0.6607034063264273
 0.6832694921259275 0.6607034063264273
 0.684666119632925 0.6607034063264273
 0.6852786695708835 0.6607034063264273
 0.6841058651464794 0.6607034063264273
 0.6847993641452366 0.6607034063264273
 0.6844687603018047 0.6607034063264273
 0.6833498143122828 0.6607034063264273
 0.6852786695708835 0.6607034063264273
 0.6801970218404528 0.6607034063264273
 0.6832969463058545 0.6607034063264273
 0.6840310862519534 0.6607034063264273
 0.6852786695708835 0.6607034063264273
 0.6851485225754003 0.6607034063264273
 0.6850480853448438 0.6607034063264273
 0.6832283895429845 0.6607034063264273
 0.682577925344893 0.6607034063264273
 0.6848891096099496 0.6607034063264273
 0.6852786695708835 0.6607034063264273
 0.683087235130369 0.6607034063264273
 0.6848815313335052 0.6607034063264273
 0.6822512482540052 0.6607034063264273
 0.6838658658877105 0.6607034063264273
 0.6843336713371709 0.6607034063264273
 0.6829978186133867 0.6607034063264273
 0.6848283712497735 0.6607034063264273
 0.6852786695708835 0.6607034063264273
 0.6846111975417276 0.6607034063264273
 0.6837928779821547 0.6607034063264273
 0.6852783733735408 0.6607034063264273
 0.6830583988221161 0.6607034063264273
 0.6844931334580104 0.6607034063264273
 0.6847683593254411 0.6607034063264273
 0.6839376977746211 0.6607034063264273
 0.6851020848890683 0.6607034063264273
 0.6849977084461126 0.6607034063264273
 0.6837893770493819 0.6607034063264273
 0.6842283183558125 0.6607034063264273
 0.6847305250340788 0.6607034063264273
 0.6832516718587319 0.6607034063264273
 0.685452163100998 0.6607034063264273
 0.6841274810403652 0.6607034063264273
 0.6828405275339692 0.6607034063264273
 0.6840049921601117 0.6607034063264273
 0.683094044490979 0.6607034063264273
 0.6850701018924578 0.6607034063264273
 0.683835663182811 0.6607034063264273
 0.6847063445679942 0.6607034063264273
 0.6845266059445924 0.6607034063264273
 0.6852402371537847 0.6607034063264273
 0.6851946991211491 0.6607034063264273
 0.6852786695708835 0.6607034063264273
 0.6843226457902504 0.6607034063264273
 0.6840629613037716 0.6607034063264273
 0.6841462555010781 0.6607034063264273
 0.6821320318501076 0.6607034063264273
 0.6846312336013436 0.6607034063264273
 0.6844117172300354 0.6607034063264273
 0.6852786695708835 0.6607034063264273
 0.6852786695708835 0.6607034063264273
 0.6846026570349748 0.6607034063264273
 0.6772919451851588 0.6607034063264273
 0.683892520211123 0.6607034063264273
 0.6852786695708835 0.6607034063264273
 0.6850580081203275 0.6607034063264273
 0.6796386635082349 0.6607034063264273
 0.6845342591757566 0.6607034063264273
 0.6842910222399603 0.6607034063264273
 0.6848809199838219 0.6607034063264273
 0.6851153708744058 0.6607034063264273
 0.683339280073999 0.6607034063264273
 0.6850914017096935 0.6607034063264273
 0.6851581528678483 0.6607034063264273
 0.6850159365879862 0.6607034063264273
 0.6845821032557047 0.6607034063264273
 0.6852786695708835 0.6607034063264273
 0.6851460101106968 0.6607034063264273
 0.6831179056276564 0.6607034063264273
 0.6848633583340378 0.6607034063264273
 0.6844486057908231 0.6607034063264273
 0.6839545225744617 0.6607034063264273
 0.684420213350066 0.6607034063264273
 0.6809408011923226 0.6607034063264273
 0.6852786695708835 0.6607034063264273
 0.6824517543442914 0.6607034063264273
 0.684040106214226 0.6607034063264273
 0.6824209595117305 0.6607034063264273
 0.6842370974087169 0.6607034063264273
 0.6841678415616349 0.6607034063264273
 0.68352032290859 0.6607034063264273
 0.6852786695708835 0.6607034063264273
 0.6852786695708835 0.6607034063264273
 0.6841928903851472 0.6607034063264273
 0.6852786695708835 0.6607034063264273
 0.6852786695708835 0.6607034063264273
 0.6852786695708835 0.6607034063264273
 0.6850505332506973 0.6607034063264273
 0.6848159651835291 0.6607034063264273
 0.6852786695708835 0.6607034063264273
 0.6849039908505866 0.6607034063264273
 0.6852786695708835 0.6607034063264273
 0.6826800250312081 0.6607034063264273
 0.6852786695708835 0.6607034063264273
 0.6847788034568056 0.6607034063264273
 0.6831950789155876 0.6607034063264273
 0.6837837017526264 0.6607034063264273
 0.685003165701064 0.6607034063264273
 0.6830775366258477 0.6607034063264273
 0.6848489165748817 0.6607034063264273
 0.6852786695708835 0.6607034063264273
 0.6852786695708835 0.6607034063264273
 0.6851151485104491 0.6607034063264273
 0.6852786695708835 0.6607034063264273
 0.6852786695708835 0.6607034063264273
 0.6846740938287021 0.6607034063264273
 0.682026783341289 0.6607034063264273
 0.6829608006742037 0.6607034063264273
 0.6827382520047464 0.6607034063264273
 0.685089295844177 0.6607034063264273
 0.6852786695708835 0.6607034063264273
 0.6847722005351707 0.6607034063264273
 0.6852786695708835 0.6607034063264273
 0.684833409117823 0.6607034063264273
 0.6847321923758944 0.6607034063264273
 0.6850520934186612 0.6607034063264273
 0.6852786695708835 0.6607034063264273
 0.6841415666573125 0.6607034063264273
 0.6847251021132877 0.6607034063264273
 0.6852786695708835 0.6607034063264273
 0.6854762155019549 0.6607034063264273
 0.6850341579828687 0.6607034063264273
 0.6854721851626613 0.6607034063264273
 0.6844891914074048 0.6607034063264273
 0.6854535162417563 0.6607034063264273
 0.6850375206873877 0.6607034063264273
 0.6852786695708835 0.6607034063264273
 0.6851218677383424 0.6607034063264273
 0.6852786695708835 0.6607034063264273
 0.6415022595549953 0.6607034063264273
 0.6845570409712844 0.6607034063264273
 0.6850673272362933 0.6607034063264273
 0.6844677326502016 0.6607034063264273
 0.6849819864079427 0.6607034063264273
 0.6852786695708835 0.6607034063264273
 0.6849419290402121 0.6607034063264273
 0.682982951204372 0.6607034063264273
 0.6835686474568067 0.6607034063264273
 0.684425531955106 0.6607034063264273
 0.685011613763608 0.6607034063264273
 0.684818861098335 0.6607034063264273
 0.6852452711481267 0.6607034063264273
 0.6852786695708835 0.6607034063264273
 0.6840626550103623 0.6607034063264273
 0.6850437420790223 0.6607034063264273
 0.6851721625341308 0.6607034063264273
 0.6834844448255172 0.6607034063264273
 0.6845669737097975 0.6607034063264273
 0.6851601441721247 0.6607034063264273
 0.6781877575930132 0.6607034063264273
 0.6847673630744744 0.6607034063264273
 0.6847663137156512 0.6607034063264273
 0.6850017840238167 0.6607034063264273
 0.6826098776498852 0.6607034063264273
 0.6849023538048009 0.6607034063264273
 0.6845912584201553 0.6607034063264273
 0.6852786695708835 0.6607034063264273
 0.6851679791867431 0.6607034063264273
 0.6847952452822489 0.6607034063264273
 0.6852786695708835 0.6607034063264273
 0.6837687216238826 0.6607034063264273
 0.6843067497595009 0.6607034063264273
 0.6852786695708835 0.6607034063264273
 0.6833805563801645 0.6607034063264273
 0.6840309483030704 0.6607034063264273
 0.6853212602105352 0.6607034063264273
 0.6806276870546986 0.6607034063264273
 0.683620747365949 0.6607034063264273
 0.6852786695708835 0.6607034063264273
 0.6852786695708835 0.6607034063264273
 0.684735499444171 0.6607034063264273
 0.6852786695708835 0.6607034063264273
 0.6849948357891475 0.6607034063264273
 0.6852072840242065 0.6607034063264273
 0.6845140616318994 0.6607034063264273
 0.6852786695708835 0.6607034063264273
 0.6851674244817363 0.6607034063264273
 0.6840229966215126 0.6607034063264273
 0.6842733674752938 0.6607034063264273
 0.6846865322614587 0.6607034063264273
 0.6843084734689624 0.6607034063264273
 0.6852786695708835 0.6607034063264273
 0.6852786695708835 0.6607034063264273
 0.6832460358228174 0.6607034063264273
 0.6852786695708835 0.6607034063264273
 0.6852786695708835 0.6607034063264273
 0.6849216230031034 0.6607034063264273
 0.6843920079448081 0.6607034063264273
 0.6847970082755924 0.6607034063264273
 0.684601118831659 0.6607034063264273
 0.6848188386735803 0.6607034063264273
 0.6851180424291016 0.6607034063264273
 0.6848882915010023 0.6607034063264273
 0.6852786695708835 0.6607034063264273
 0.6850267764528742 0.6607034063264273
 0.681817810110974 0.6607034063264273
 0.6839796724022738 0.6607034063264273
 0.6847717365752457 0.6607034063264273
 0.6852786695708835 0.6607034063264273
 0.6841772169124289 0.6607034063264273
 0.6832061385342744 0.6607034063264273
 0.6421667081582999 0.6607034063264273
 0.6844234731054641 0.6607034063264273
 0.6843052680735142 0.6607034063264273
 0.6795673959933707 0.6607034063264273
 0.684412348803957 0.6607034063264273
 0.6828972965542007 0.6607034063264273
 0.6852786695708835 0.6607034063264273
 0.6848745921133795 0.6607034063264273
 0.6852786695708835 0.6607034063264273
 0.6783791524939633 0.6607034063264273
 0.6849292746070307 0.6607034063264273
 0.6852786695708835 0.6607034063264273