# Created by Octave 4.0.0, Tue May 15 07:44:29 2018 CEST <olethros@olethros-OptiPlex-9010>
# name: results
# type: struct
# ndims: 2
 1 5
# length: 8
# name: options
# type: cell
# rows: 1
# columns: 5
# name: <cell-element>
# type: scalar struct
# ndims: 2
 1 1
# length: 8
# name: A
# type: scalar
2


# name: X
# type: scalar
8


# name: Y
# type: scalar
2


# name: Z
# type: scalar
2


# name: lambda
# type: scalar
0


# name: n_iter
# type: scalar
10000


# name: horizon
# type: scalar
1000


# name: n_samples
# type: scalar
16





# name: <cell-element>
# type: scalar struct
# ndims: 2
 1 1
# length: 8
# name: A
# type: scalar
2


# name: X
# type: scalar
8


# name: Y
# type: scalar
2


# name: Z
# type: scalar
2


# name: lambda
# type: scalar
0.25


# name: n_iter
# type: scalar
10000


# name: horizon
# type: scalar
1000


# name: n_samples
# type: scalar
16





# name: <cell-element>
# type: scalar struct
# ndims: 2
 1 1
# length: 8
# name: A
# type: scalar
2


# name: X
# type: scalar
8


# name: Y
# type: scalar
2


# name: Z
# type: scalar
2


# name: lambda
# type: scalar
0.5


# name: n_iter
# type: scalar
10000


# name: horizon
# type: scalar
1000


# name: n_samples
# type: scalar
16





# name: <cell-element>
# type: scalar struct
# ndims: 2
 1 1
# length: 8
# name: A
# type: scalar
2


# name: X
# type: scalar
8


# name: Y
# type: scalar
2


# name: Z
# type: scalar
2


# name: lambda
# type: scalar
0.75


# name: n_iter
# type: scalar
10000


# name: horizon
# type: scalar
1000


# name: n_samples
# type: scalar
16





# name: <cell-element>
# type: scalar struct
# ndims: 2
 1 1
# length: 8
# name: A
# type: scalar
2


# name: X
# type: scalar
8


# name: Y
# type: scalar
2


# name: Z
# type: scalar
2


# name: lambda
# type: scalar
1


# name: n_iter
# type: scalar
10000


# name: horizon
# type: scalar
1000


# name: n_samples
# type: scalar
16







# name: PU
# type: cell
# rows: 1
# columns: 5
# name: <cell-element>
# type: matrix
# rows: 1000
# columns: 2
 0.4123509908942916 0.4484488670636609
 0.4634367208378873 0.4584893766976077
 0.5028659193349889 0.5300051992825435
 0.6236346923333327 0.5276577052409744
 0.5234863987023392 0.529847140556191
 0.4816225815398839 0.5342381889762881
 0.5311026826543437 0.5185622923475515
 0.4925753152075546 0.5587801990917747
 0.5239307893858369 0.5630401304884463
 0.5573032175875493 0.4812710398789616
 0.5389036404589636 0.510337077742882
 0.4867940664822124 0.5282594758557357
 0.4895150109409463 0.500624435016395
 0.5328024911678841 0.4700982125006374
 0.5589050100172125 0.4778864883875623
 0.5579581284116891 0.4905438794832216
 0.5574861904612969 0.4420469413057247
 0.5364586288366651 0.4685263242794876
 0.5588408854417382 0.5008511666305777
 0.5570179969724381 0.5226568767931599
 0.5571780182802916 0.5026717618143994
 0.5554443583674847 0.5084400712277575
 0.5616495413514215 0.4948902875466197
 0.5832105764047619 0.5141696957092194
 0.559631871823524 0.5079606326672554
 0.5843200463478219 0.4893530338206482
 0.5842369776196288 0.4876784136082795
 0.5585232557705178 0.5495906120622571
 0.5837079615895464 0.5431206683962042
 0.5823926137877797 0.4865378896597845
 0.5584604154859595 0.5015896683022365
 0.5619853432654731 0.5111531116392962
 0.5833863624615103 0.5093882609845395
 0.5557853269087714 0.5281163875999981
 0.5808326319439356 0.5410579456197877
 0.5830709143247903 0.5547154147776728
 0.5825953126648757 0.5492518244066242
 0.5841550118188956 0.523440363854736
 0.5603734969091456 0.5411896531944151
 0.5915834464780547 0.5388235656386715
 0.5645438544007892 0.5365532133429589
 0.5592193748255369 0.5577433221626512
 0.5589691387439689 0.5363748835164053
 0.5858928975449871 0.5338981058156167
 0.5593018930660227 0.5317605154188774
 0.5816014106879972 0.5578463974106047
 0.5878848091182345 0.5517059260885802
 0.5890301023066471 0.5539754680942364
 0.584277044069458 0.5458973163122824
 0.5823071915379324 0.5349391714220915
 0.5846945943877678 0.5437976513375249
 0.5838073487202047 0.5364820733042432
 0.5838519698897686 0.526967893772428
 0.5833346588431848 0.541790598725572
 0.5841493306421999 0.5448770292819418
 0.5843010787891783 0.5435605935653247
 0.5885951368329926 0.53493446273044
 0.5842534972095549 0.5361767401343562
 0.5820218014068506 0.5367212429527621
 0.5888033076153452 0.5553599538895236
 0.5842309377444866 0.5393971427937243
 0.5841167361924078 0.5401775330186056
 0.583537495189996 0.5359018205719834
 0.5833401586215455 0.5348857356401246
 0.5836806820943513 0.5396823627213443
 0.5596209464716263 0.5425257521216946
 0.5209706555092151 0.5211471945331092
 0.5576991920378173 0.5211471945331092
 0.5573121788775542 0.5211471945331092
 0.5206172263427874 0.5211471945331092
 0.5571779567035774 0.5211471945331092
 0.5593811403544651 0.5211471945331092
 0.5211858681380408 0.5211471945331092
 0.557558207104545 0.5211471945331092
 0.5588779780750395 0.5211471945331092
 0.5599796003898204 0.5211471945331092
 0.5237500199714912 0.5211471945331092
 0.5578169342603528 0.5211471945331092
 0.5596170658226969 0.5211471945331092
 0.5214623133009537 0.5211471945331092
 0.5482561203180899 0.5211471945331092
 0.5443453676427342 0.5211471945331092
 0.5443270142063207 0.5211471945331092
 0.5598803803118668 0.5211471945331092
 0.557435117377421 0.5191178903910855
 0.504057645126086 0.5026550223775175
 0.5448658492895233 0.5123170948048583
 0.5809863709680579 0.493342723650706
 0.5395750282946825 0.5085078183267826
 0.539179984517174 0.4908125099713193
 0.5032336340927874 0.5028441163641519
 0.4792902498662266 0.4837929202678015
 0.5247158293578237 0.4951506941601587
 0.5204304614044912 0.4894637673067944
 0.5206827276583553 0.5211471945331092
 0.5228299732106803 0.5211471945331092
 0.5791286555735162 0.5211471945331092
 0.5812095961896054 0.5211471945331092
 0.520875216372841 0.5211471945331092
 0.5453627102224935 0.5211471945331092
 0.5835493160324393 0.5211471945331092
 0.5606657074611996 0.5211471945331092
 0.540667248253878 0.5211471945331092
 0.5219272547990521 0.5211471945331092
 0.5455810543709164 0.5211471945331092
 0.5604379567919939 0.5211471945331092
 0.5206846190046537 0.5211471945331092
 0.5202255106033219 0.5211471945331092
 0.5595462806054889 0.5211471945331092
 0.5570303496955297 0.5211471945331092
 0.5602910611553293 0.5211471945331092
 0.5271369519563881 0.5211471945331092
 0.5201310745285265 0.5211471945331092
 0.5203676914260617 0.5211471945331092
 0.5216228620095119 0.5211471945331092
 0.523007902058704 0.5211471945331092
 0.5203291357163509 0.5211471945331092
 0.5448892691881131 0.5211471945331092
 0.5203202764851117 0.5211471945331092
 0.522956218021986 0.5211471945331092
 0.5234990763513451 0.5211471945331092
 0.523752435289535 0.5211471945331092
 0.5201683683356999 0.5211471945331092
 0.5474948886268995 0.5211471945331092
 0.5189054413300827 0.5211471945331092
 0.5471557138139725 0.5211471945331092
 0.4806717394474025 0.5211471945331092
 0.544973616791082 0.5211471945331092
 0.5219301901947482 0.5211471945331092
 0.5456711840889646 0.5211471945331092
 0.5452243041398553 0.5211471945331092
 0.5249287017383543 0.5211471945331092
 0.5196595680662677 0.5211471945331092
 0.50280067226187 0.5211471945331092
 0.5212618888360437 0.5211471945331092
 0.5217703846741834 0.5211471945331092
 0.556136638602268 0.5211471945331092
 0.477970965767292 0.5211471945331092
 0.5450406616585776 0.5211471945331092
 0.5427906856868551 0.5211471945331092
 0.5084958322967623 0.5211471945331092
 0.5194858653162103 0.4982415304136836
 0.5433153104751899 0.5125707509525905
 0.5212028020241261 0.5059270372152107
 0.5459172589838931 0.5211471945331092
 0.5020739312996194 0.5211471945331092
 0.5450512568920729 0.5211471945331092
 0.480771252559472 0.5211471945331092
 0.4786883143394283 0.5211471945331092
 0.4798510711168609 0.5211471945331092
 0.5196654870431798 0.5211471945331092
 0.5205519808738907 0.5211471945331092
 0.5204385834342765 0.5211471945331092
 0.4822412799425753 0.5211471945331092
 0.5202628406607797 0.5211471945331092
 0.5037934178216024 0.5211471945331092
 0.520672890057005 0.5211471945331092
 0.5206962888626018 0.5211471945331092
 0.4775634210089772 0.5211471945331092
 0.5214659311070311 0.5211471945331092
 0.5213150679741225 0.5211471945331092
 0.5211200454515584 0.5211471945331092
 0.5202394569316183 0.5211471945331092
 0.5212741908122782 0.5211471945331092
 0.5192073765266148 0.5211471945331092
 0.5203874363442401 0.5211471945331092
 0.5205427816607054 0.5211471945331092
 0.5197303149239981 0.5211471945331092
 0.520298143805259 0.5211471945331092
 0.521476281064695 0.5211471945331092
 0.5211173027913105 0.5211471945331092
 0.4820343487158363 0.5211471945331092
 0.5192419010162678 0.5211471945331092
 0.5195619902326513 0.5211471945331092
 0.5225432775103407 0.5211471945331092
 0.521399623582711 0.5211471945331092
 0.5206994354927349 0.5211471945331092
 0.5210148347613296 0.5211471945331092
 0.5196597423160275 0.5211471945331092
 0.5206267962749763 0.5211471945331092
 0.5201736293537197 0.5211471945331092
 0.4776693702142126 0.5211471945331092
 0.5834099728923114 0.5211471945331092
 0.521804529997008 0.5211471945331092
 0.5207852577418192 0.5211471945331092
 0.5203202764851117 0.5211471945331092
 0.5207546474476418 0.5211471945331092
 0.545095316152552 0.5211471945331092
 0.520204444393802 0.5211471945331092
 0.5207485131576972 0.5211471945331092
 0.5202963993666031 0.5211471945331092
 0.519556535694519 0.5211471945331092
 0.5211581333459798 0.5211471945331092
 0.5201180079546319 0.5211471945331092
 0.5200268647230623 0.5211471945331092
 0.5208421616890274 0.5211471945331092
 0.5208497129994729 0.5211471945331092
 0.5203202764851117 0.5211471945331092
 0.5241941306996594 0.5211471945331092
 0.5203202764851117 0.5211471945331092
 0.5207086802076011 0.5211471945331092
 0.5206237353867802 0.5211471945331092
 0.5220698586861999 0.5211471945331092
 0.5203202764851117 0.5211471945331092
 0.5205132540486278 0.5211471945331092
 0.5201696475035296 0.5211471945331092
 0.5203202764851117 0.5211471945331092
 0.524938688674034 0.5211471945331092
 0.5213954147509993 0.5211471945331092
 0.5215872939871495 0.5211471945331092
 0.5204202248735513 0.5211471945331092
 0.5198751371817116 0.5211471945331092
 0.521768697213484 0.5211471945331092
 0.5201782263387101 0.5211471945331092
 0.5203216613897699 0.5211471945331092
 0.520043381125635 0.5211471945331092
 0.5198603352162698 0.5211471945331092
 0.5229368746337003 0.5211471945331092
 0.5581744261727326 0.5211471945331092
 0.5228195073747259 0.5211471945331092
 0.5588211097686899 0.5211471945331092
 0.5213982327268978 0.5211471945331092
 0.5582474220172768 0.5211471945331092
 0.5209377182470756 0.5211471945331092
 0.5217548802152162 0.5211471945331092
 0.5597160219239059 0.5211471945331092
 0.5581422206959715 0.5211471945331092
 0.5586340413118291 0.5211471945331092
 0.5583136847710183 0.5211471945331092
 0.5569069981814126 0.5211471945331092
 0.5596160519928206 0.5211471945331092
 0.5576250169649413 0.5211471945331092
 0.5583409972016111 0.5211471945331092
 0.5578192838702418 0.5211471945331092
 0.5578990582403492 0.5211471945331092
 0.5586734686191464 0.5211471945331092
 0.5569842238654111 0.5211471945331092
 0.5585761120730692 0.5211471945331092
 0.556662230423581 0.5211471945331092
 0.5580328368385625 0.5211471945331092
 0.557782627360744 0.5211471945331092
 0.55717847695522 0.5211471945331092
 0.5581007315550125 0.5211471945331092
 0.5590646889637628 0.5211471945331092
 0.5592980592411493 0.5211471945331092
 0.5596349993726795 0.5211471945331092
 0.5581425082696341 0.5211471945331092
 0.5595333037923832 0.5211471945331092
 0.5581422206959715 0.5211471945331092
 0.5600643556337972 0.5211471945331092
 0.559190676108724 0.5211471945331092
 0.5581422206959715 0.5211471945331092
 0.5588751269378044 0.5211471945331092
 0.5601078718971134 0.5211471945331092
 0.5581422206959715 0.5211471945331092
 0.5581422206959715 0.5211471945331092
 0.5584448073641847 0.5211471945331092
 0.5579360377598082 0.5211471945331092
 0.5580567747001454 0.5211471945331092
 0.5588754150524904 0.5211471945331092
 0.56295342478663 0.5211471945331092
 0.5583786204794817 0.5211471945331092
 0.557844686452343 0.5211471945331092
 0.5602876805553455 0.5211471945331092
 0.5586876871646185 0.5211471945331092
 0.558184394861982 0.5211471945331092
 0.5581422206959715 0.5211471945331092
 0.5594097722317982 0.5211471945331092
 0.5581422206959715 0.5211471945331092
 0.5592823329391422 0.5211471945331092
 0.5655663194231536 0.5211471945331092
 0.5581422206959715 0.5211471945331092
 0.5581422206959715 0.5211471945331092
 0.5581422206959715 0.5211471945331092
 0.5581311042248955 0.5211471945331092
 0.5580446021250649 0.5211471945331092
 0.5611769203964319 0.5211471945331092
 0.5581422206959715 0.5211471945331092
 0.5581422206959715 0.5211471945331092
 0.5598694515798674 0.5211471945331092
 0.5592466351082201 0.5211471945331092
 0.557953304331692 0.5211471945331092
 0.5577977688752177 0.5211471945331092
 0.5578192713100968 0.5211471945331092
 0.5590914537328773 0.5211471945331092
 0.5581422206959715 0.5211471945331092
 0.5580178333741669 0.5211471945331092
 0.5582248498859563 0.5211471945331092
 0.5590117313382013 0.5211471945331092
 0.558142386569239 0.5211471945331092
 0.5586085627520374 0.5211471945331092
 0.5585098074828837 0.5211471945331092
 0.5581422206959715 0.5211471945331092
 0.5578678724285252 0.5211471945331092
 0.5670488788186202 0.5211471945331092
 0.5581422206959715 0.5211471945331092
 0.5581422206959715 0.5211471945331092
 0.5581422206959715 0.5211471945331092
 0.5582624290636542 0.5211471945331092
 0.558230528417416 0.5211471945331092
 0.5582780047280962 0.5211471945331092
 0.5581534394977837 0.5211471945331092
 0.5582601589482665 0.5211471945331092
 0.5580901678847108 0.5211471945331092
 0.5581422206959715 0.5211471945331092
 0.5580386469881508 0.5211471945331092
 0.5581422206959715 0.5211471945331092
 0.5586348694711681 0.5211471945331092
 0.558407644488644 0.5211471945331092
 0.559322707785768 0.5211471945331092
 0.5584729454863077 0.5211471945331092
 0.5571216343596594 0.5211471945331092
 0.5589163353208435 0.5211471945331092
 0.5587083563809815 0.5211471945331092
 0.5602635101560419 0.5211471945331092
 0.5581422206959715 0.5211471945331092
 0.5580655956726225 0.5211471945331092
 0.5580719896450556 0.5211471945331092
 0.5593309496123721 0.5211471945331092
 0.5603837526700794 0.5211471945331092
 0.55885573470195 0.5211471945331092
 0.5581422206959715 0.5211471945331092
 0.5580634766739367 0.5211471945331092
 0.5581282883068359 0.5211471945331092
 0.558655276639406 0.5211471945331092
 0.5582974149312998 0.5211471945331092
 0.5581422206959715 0.5211471945331092
 0.5591613156754176 0.5211471945331092
 0.5580002751165389 0.5211471945331092
 0.5581422206959715 0.5211471945331092
 0.5580771070216561 0.5211471945331092
 0.5578094823298598 0.5211471945331092
 0.5581422206959715 0.5211471945331092
 0.5581422206959715 0.5211471945331092
 0.5578536885972294 0.5211471945331092
 0.5641196077549466 0.5211471945331092
 0.5590708935660436 0.5211471945331092
 0.5581422206959715 0.5211471945331092
 0.5581422206959715 0.5211471945331092
 0.5581422206959715 0.5211471945331092
 0.5579531968879864 0.5211471945331092
 0.558895502995215 0.5211471945331092
 0.559899190271394 0.5211471945331092
 0.5581422206959715 0.5211471945331092
 0.5592615232875146 0.5211471945331092
 0.5581422206959715 0.5211471945331092
 0.5580349918362466 0.5211471945331092
 0.5581422206959715 0.5211471945331092
 0.5590141260792431 0.5211471945331092
 0.5581422206959715 0.5211471945331092
 0.5581422206959715 0.5211471945331092
 0.5581425438698187 0.5211471945331092
 0.5581007659549858 0.5211471945331092
 0.5581422206959715 0.5211471945331092
 0.5581261951725017 0.5211471945331092
 0.5581422206959715 0.5211471945331092
 0.5582243554838188 0.5211471945331092
 0.5581422206959715 0.5211471945331092
 0.5581422206959715 0.5211471945331092
 0.5581422206959715 0.5211471945331092
 0.5592391659283407 0.5211471945331092
 0.5581837562505511 0.5211471945331092
 0.558706743166155 0.5211471945331092
 0.5581422206959715 0.5211471945331092
 0.5595631880813404 0.5211471945331092
 0.5581422206959715 0.5211471945331092
 0.5581422206959715 0.5211471945331092
 0.5584337224555495 0.5211471945331092
 0.5579276091476377 0.5211471945331092
 0.5586637983045546 0.5211471945331092
 0.5585404869643046 0.5211471945331092
 0.5583965191965741 0.5211471945331092
 0.5585202504925736 0.5211471945331092
 0.5581422206959715 0.5211471945331092
 0.5581255959303124 0.5211471945331092
 0.5581422206959715 0.5211471945331092
 0.5581422206959715 0.5211471945331092
 0.5605452402998002 0.5211471945331092
 0.558444795849966 0.5211471945331092
 0.5595574858266679 0.5211471945331092
 0.5583090449219085 0.5211471945331092
 0.5583974444829148 0.5211471945331092
 0.5581422206959715 0.5211471945331092
 0.5581449408353268 0.5211471945331092
 0.5585784267413432 0.5211471945331092
 0.5581450099841834 0.5211471945331092
 0.5587164761374064 0.5211471945331092
 0.5586516099322825 0.5211471945331092
 0.5589265282873015 0.5211471945331092
 0.5581422206959715 0.5211471945331092
 0.5581422206959715 0.5211471945331092
 0.5581422206959715 0.5211471945331092
 0.5604312587485917 0.5211471945331092
 0.5583950153300339 0.5211471945331092
 0.5581422206959715 0.5211471945331092
 0.5581422206959715 0.5211471945331092
 0.5581422206959715 0.5211471945331092
 0.5612424724425666 0.5211471945331092
 0.5581432714096413 0.5211471945331092
 0.5581422206959715 0.5211471945331092
 0.5581422206959715 0.5211471945331092
 0.5581422206959715 0.5211471945331092
 0.5581422206959715 0.5211471945331092
 0.5584786566911336 0.5211471945331092
 0.5583041486721321 0.5211471945331092
 0.5581422206959715 0.5211471945331092
 0.558630390802681 0.5211471945331092
 0.5610729818403327 0.5211471945331092
 0.5581422206959715 0.5211471945331092
 0.5587271326730743 0.5211471945331092
 0.5579715064666551 0.5211471945331092
 0.5581557996265365 0.5211471945331092
 0.5585423606198126 0.5211471945331092
 0.5581366922178115 0.5211471945331092
 0.5586688502815371 0.5211471945331092
 0.5581422206959715 0.5211471945331092
 0.559265518333198 0.5211471945331092
 0.5581422206959715 0.5211471945331092
 0.5581422206959715 0.5211471945331092
 0.5581422206959715 0.5211471945331092
 0.5581422206959715 0.5211471945331092
 0.5588766645334023 0.5211471945331092
 0.5580451398679565 0.5211471945331092
 0.5581422206959715 0.5211471945331092
 0.5594683503972966 0.5211471945331092
 0.5581576400871389 0.5211471945331092
 0.5598169190600846 0.5211471945331092
 0.5581422206959715 0.5211471945331092
 0.5581550452161566 0.5211471945331092
 0.5581422206959715 0.5211471945331092
 0.5594060179299354 0.5211471945331092
 0.5595710922726519 0.5211471945331092
 0.5581422206959715 0.5211471945331092
 0.5590489222450966 0.5211471945331092
 0.5581422206959715 0.5211471945331092
 0.5581422206959715 0.5211471945331092
 0.5584834692113145 0.5211471945331092
 0.5581422206959715 0.5211471945331092
 0.5601179149583675 0.5211471945331092
 0.5581422206959715 0.5211471945331092
 0.5581466647530193 0.5211471945331092
 0.5581422206959715 0.5211471945331092
 0.5591241704741765 0.5211471945331092
 0.5585744363211933 0.5211471945331092
 0.5581446164012058 0.5211471945331092
 0.5588584218517735 0.5211471945331092
 0.5580288137422494 0.5211471945331092
 0.5581441351575196 0.5211471945331092
 0.5589114602623109 0.5211471945331092
 0.5581422206959715 0.5211471945331092
 0.5581138937299382 0.5211471945331092
 0.5583656083911146 0.5211471945331092
 0.5581426197170848 0.5211471945331092
 0.5581422206959715 0.5211471945331092
 0.5581422206959715 0.5211471945331092
 0.5580437464291458 0.5211471945331092
 0.5581422206959715 0.5211471945331092
 0.558664751885066 0.5211471945331092
 0.5581422206959715 0.5211471945331092
 0.5612112848713594 0.5211471945331092
 0.5581422206959715 0.5211471945331092
 0.5583115955161296 0.5211471945331092
 0.5581422206959715 0.5211471945331092
 0.5581422206959715 0.5211471945331092
 0.5581422206959715 0.5211471945331092
 0.5581422206959715 0.5211471945331092
 0.5581422206959715 0.5211471945331092
 0.558299591617854 0.5211471945331092
 0.5583144790097956 0.5211471945331092
 0.558488613789914 0.5211471945331092
 0.5581422206959715 0.5211471945331092
 0.5580825502711411 0.5211471945331092
 0.5582452374498866 0.5211471945331092
 0.5581423803711741 0.5211471945331092
 0.5581422206959715 0.5211471945331092
 0.5596804488973199 0.5211471945331092
 0.5581422206959715 0.5211471945331092
 0.5581422206959715 0.5211471945331092
 0.5581422206959715 0.5211471945331092
 0.5615923421348161 0.5211471945331092
 0.5581792069529824 0.5211471945331092
 0.5581422206959715 0.5211471945331092
 0.5598879802768233 0.5211471945331092
 0.5581422206959715 0.5211471945331092
 0.5583753578751037 0.5211471945331092
 0.5588077734929852 0.5211471945331092
 0.5581422206959715 0.5211471945331092
 0.5582665967081893 0.5211471945331092
 0.5596302741924721 0.5211471945331092
 0.5581422206959715 0.5211471945331092
 0.5576980681721988 0.5211471945331092
 0.5581422206959715 0.5211471945331092
 0.5581422206959715 0.5211471945331092
 0.5594844402230397 0.5211471945331092
 0.5581422206959715 0.5211471945331092
 0.5581422206959715 0.5211471945331092
 0.5581422206959715 0.5211471945331092
 0.5595869793642041 0.5211471945331092
 0.5581692871168559 0.5211471945331092
 0.5588750795922808 0.5211471945331092
 0.5581148667077247 0.5211471945331092
 0.5582974986084724 0.5211471945331092
 0.5585967080014259 0.5211471945331092
 0.5581422206959715 0.5211471945331092
 0.5811856005842353 0.5211471945331092
 0.5581575307331822 0.5211471945331092
 0.5581422206959715 0.5211471945331092
 0.5581422206959715 0.5211471945331092
 0.5592079286034244 0.5211471945331092
 0.5585086147503645 0.5211471945331092
 0.5581422206959715 0.5211471945331092
 0.5581422206959715 0.5211471945331092
 0.5583584127770134 0.5211471945331092
 0.5581422206959715 0.5211471945331092
 0.5585521311334931 0.5211471945331092
 0.5581422206959715 0.5211471945331092
 0.5581422206959715 0.5211471945331092
 0.5581422206959715 0.5211471945331092
 0.5581422206959715 0.5211471945331092
 0.5581422206959715 0.5211471945331092
 0.5581422206959715 0.5211471945331092
 0.5581422206959715 0.5211471945331092
 0.5581422206959715 0.5211471945331092
 0.5593848870995692 0.5211471945331092
 0.5581422206959715 0.5211471945331092
 0.5581422206959715 0.5211471945331092
 0.5581422206959715 0.5211471945331092
 0.5583440952816743 0.5211471945331092
 0.5581422206959715 0.5211471945331092
 0.5581437153416883 0.5211471945331092
 0.5596541831588833 0.5211471945331092
 0.5581422206959715 0.5211471945331092
 0.5581422206959715 0.5211471945331092
 0.5581422206959715 0.5211471945331092
 0.558342022021759 0.5211471945331092
 0.5583398923145356 0.5211471945331092
 0.5581917335765619 0.5211471945331092
 0.5586050970256254 0.5211471945331092
 0.5587719673652711 0.5211471945331092
 0.5581422206959715 0.5211471945331092
 0.55885379917889 0.5211471945331092
 0.5590163361210333 0.5211471945331092
 0.5587043217724447 0.5211471945331092
 0.5579891173298194 0.5211471945331092
 0.5581422206959715 0.5211471945331092
 0.5581422206959715 0.5211471945331092
 0.5581422206959715 0.5211471945331092
 0.5829538768393009 0.5211471945331092
 0.5594091581850278 0.5211471945331092
 0.5583614694073412 0.5211471945331092
 0.5586072644011701 0.5211471945331092
 0.5581422206959715 0.5211471945331092
 0.5587288612003444 0.5211471945331092
 0.5581422206959715 0.5211471945331092
 0.5584493852100892 0.5211471945331092
 0.5581422206959715 0.5211471945331092
 0.5581422206959715 0.5211471945331092
 0.5581422206959715 0.5211471945331092
 0.5581099546824549 0.5211471945331092
 0.5581422206959715 0.5211471945331092
 0.5585433964872859 0.5211471945331092
 0.5596737640774745 0.5211471945331092
 0.5581422206959715 0.5211471945331092
 0.5581422206959715 0.5211471945331092
 0.5581422206959715 0.5211471945331092
 0.5589567938647875 0.5211471945331092
 0.5575866452585273 0.5211471945331092
 0.5577398475640388 0.5211471945331092
 0.5596476709922622 0.5211471945331092
 0.5581422206959715 0.5211471945331092
 0.5584209099002537 0.5211471945331092
 0.5582785655468263 0.5211471945331092
 0.5591319934934492 0.5211471945331092
 0.5582767166644421 0.5211471945331092
 0.5581422206959715 0.5211471945331092
 0.5581422206959715 0.5211471945331092
 0.5580323645428182 0.5211471945331092
 0.5581422206959715 0.5211471945331092
 0.5588387750746551 0.5211471945331092
 0.5586610739181805 0.5211471945331092
 0.5585540228034552 0.5211471945331092
 0.5579908333840295 0.5211471945331092
 0.5582656823301079 0.5211471945331092
 0.5592675513384547 0.5211471945331092
 0.5581422206959715 0.5211471945331092
 0.5593454346378658 0.5211471945331092
 0.5581422206959715 0.5211471945331092
 0.5581422206959715 0.5211471945331092
 0.5583862941946265 0.5211471945331092
 0.5581422206959715 0.5211471945331092
 0.5581422206959715 0.5211471945331092
 0.5598196244321068 0.5211471945331092
 0.558298854285548 0.5211471945331092
 0.5579684671772639 0.5211471945331092
 0.5581422206959715 0.5211471945331092
 0.5581422206959715 0.5211471945331092
 0.5585982628465853 0.5211471945331092
 0.5581422206959715 0.5211471945331092
 0.5581763293087918 0.5211471945331092
 0.5826253448161619 0.5211471945331092
 0.5599148089900811 0.5211471945331092
 0.5583571704689483 0.5211471945331092
 0.5590761286715242 0.5211471945331092
 0.5594707377343271 0.5211471945331092
 0.5581422206959715 0.5211471945331092
 0.5581422206959715 0.5211471945331092
 0.5582315732484771 0.5211471945331092
 0.5582818032537364 0.5211471945331092
 0.5828985453561318 0.5211471945331092
 0.5581422206959715 0.5211471945331092
 0.5589029390199785 0.5211471945331092
 0.5581422206959715 0.5211471945331092
 0.5593255162957665 0.5211471945331092
 0.5581422206959715 0.5211471945331092
 0.5581422206959715 0.5211471945331092
 0.5610437776413321 0.5211471945331092
 0.5593550417755958 0.5211471945331092
 0.5581422206959715 0.5211471945331092
 0.5581422206959715 0.5211471945331092
 0.5581422206959715 0.5211471945331092
 0.5581422206959715 0.5211471945331092
 0.5581422206959715 0.5211471945331092
 0.5584795752623259 0.5211471945331092
 0.5585672209121973 0.5211471945331092
 0.5581422206959715 0.5211471945331092
 0.5585845995469337 0.5211471945331092
 0.558455123915567 0.5211471945331092
 0.5580714820689553 0.5211471945331092
 0.5581512666676982 0.5211471945331092
 0.5581231945640559 0.5211471945331092
 0.5581422206959715 0.5211471945331092
 0.5581422206959715 0.5211471945331092
 0.5577156817187705 0.5211471945331092
 0.5586561658443071 0.5211471945331092
 0.5581422206959715 0.5211471945331092
 0.5581422206959715 0.5211471945331092
 0.5583563660043249 0.5211471945331092
 0.5581157264142718 0.5211471945331092
 0.5580338881740826 0.5211471945331092
 0.5581422206959715 0.5211471945331092
 0.5580644759490018 0.5211471945331092
 0.5581422206959715 0.5211471945331092
 0.5581422206959715 0.5211471945331092
 0.5581428052261127 0.5211471945331092
 0.5583769716285684 0.5211471945331092
 0.5581422206959715 0.5211471945331092
 0.5581422206959715 0.5211471945331092
 0.5581422206959715 0.5211471945331092
 0.5581422206959715 0.5211471945331092
 0.5581422206959715 0.5211471945331092
 0.5621024685413342 0.5211471945331092
 0.5581422206959715 0.5211471945331092
 0.5591507958652653 0.5211471945331092
 0.5581422206959715 0.5211471945331092
 0.5581422206959715 0.5211471945331092
 0.5581422206959715 0.5211471945331092
 0.5581422206959715 0.5211471945331092
 0.5581422206959715 0.5211471945331092
 0.5582929994711339 0.5211471945331092
 0.5581422206959715 0.5211471945331092
 0.5581422206959715 0.5211471945331092
 0.5581422206959715 0.5211471945331092
 0.5583091539625212 0.5211471945331092
 0.5585509850375643 0.5211471945331092
 0.5581422206959715 0.5211471945331092
 0.5581422206959715 0.5211471945331092
 0.5581422206959715 0.5211471945331092
 0.5581422206959715 0.5211471945331092
 0.5597963599406222 0.5211471945331092
 0.5603866649311652 0.5211471945331092
 0.5580514597542805 0.5211471945331092
 0.5581422206959715 0.5211471945331092
 0.5581422206959715 0.5211471945331092
 0.5581432669739176 0.5211471945331092
 0.5581422206959715 0.5211471945331092
 0.5607390860893212 0.5211471945331092
 0.5581422206959715 0.5211471945331092
 0.5587667811124948 0.5211471945331092
 0.5581422206959715 0.5211471945331092
 0.5577436970381301 0.5211471945331092
 0.5583513750047892 0.5211471945331092
 0.5595048383773982 0.5211471945331092
 0.5582258711085324 0.5211471945331092
 0.5581422206959715 0.5211471945331092
 0.5581422206959715 0.5211471945331092
 0.5581422206959715 0.5211471945331092
 0.5578383011057675 0.5211471945331092
 0.5594457887448383 0.5211471945331092
 0.5583428509878807 0.5211471945331092
 0.5589910538308328 0.5211471945331092
 0.5593419088135217 0.5211471945331092
 0.5582457041336936 0.5211471945331092
 0.5589490835411366 0.5211471945331092
 0.558239710024381 0.5211471945331092
 0.5581422206959715 0.5211471945331092
 0.5586079121062669 0.5211471945331092
 0.5584808482924525 0.5211471945331092
 0.5634631968552546 0.5211471945331092
 0.5584865995186635 0.5211471945331092
 0.5581535875274213 0.5211471945331092
 0.5578130590611602 0.5211471945331092
 0.5582925757101727 0.5211471945331092
 0.5581422206959715 0.5211471945331092
 0.5588221490393003 0.5211471945331092
 0.5581422206959715 0.5211471945331092
 0.5578841310899086 0.5211471945331092
 0.5584203947467615 0.5211471945331092
 0.5581422206959715 0.5211471945331092
 0.5581422206959715 0.5211471945331092
 0.5628972959908786 0.5211471945331092
 0.5580900237292756 0.5211471945331092
 0.5581422206959715 0.5211471945331092
 0.5581422206959715 0.5211471945331092
 0.5581422206959715 0.5211471945331092
 0.5581422206959715 0.5211471945331092
 0.5582073590655675 0.5211471945331092
 0.5581422206959715 0.5211471945331092
 0.5580988876329069 0.5211471945331092
 0.5583315465541364 0.5211471945331092