# Created by Octave 4.0.0, Mon May 14 06:54:42 2018 CEST <olethros@olethros-OptiPlex-9010>
# name: results
# type: struct
# ndims: 2
 1 5
# length: 8
# name: options
# type: cell
# rows: 1
# columns: 5
# name: <cell-element>
# type: scalar struct
# ndims: 2
 1 1
# length: 8
# name: A
# type: scalar
2


# name: X
# type: scalar
8


# name: Y
# type: scalar
2


# name: Z
# type: scalar
2


# name: lambda
# type: scalar
0


# name: n_iter
# type: scalar
10000


# name: horizon
# type: scalar
1000


# name: n_samples
# type: scalar
16





# name: <cell-element>
# type: scalar struct
# ndims: 2
 1 1
# length: 8
# name: A
# type: scalar
2


# name: X
# type: scalar
8


# name: Y
# type: scalar
2


# name: Z
# type: scalar
2


# name: lambda
# type: scalar
0.25


# name: n_iter
# type: scalar
10000


# name: horizon
# type: scalar
1000


# name: n_samples
# type: scalar
16





# name: <cell-element>
# type: scalar struct
# ndims: 2
 1 1
# length: 8
# name: A
# type: scalar
2


# name: X
# type: scalar
8


# name: Y
# type: scalar
2


# name: Z
# type: scalar
2


# name: lambda
# type: scalar
0.5


# name: n_iter
# type: scalar
10000


# name: horizon
# type: scalar
1000


# name: n_samples
# type: scalar
16





# name: <cell-element>
# type: scalar struct
# ndims: 2
 1 1
# length: 8
# name: A
# type: scalar
2


# name: X
# type: scalar
8


# name: Y
# type: scalar
2


# name: Z
# type: scalar
2


# name: lambda
# type: scalar
0.75


# name: n_iter
# type: scalar
10000


# name: horizon
# type: scalar
1000


# name: n_samples
# type: scalar
16





# name: <cell-element>
# type: scalar struct
# ndims: 2
 1 1
# length: 8
# name: A
# type: scalar
2


# name: X
# type: scalar
8


# name: Y
# type: scalar
2


# name: Z
# type: scalar
2


# name: lambda
# type: scalar
1


# name: n_iter
# type: scalar
10000


# name: horizon
# type: scalar
1000


# name: n_samples
# type: scalar
16







# name: PU
# type: cell
# rows: 1
# columns: 5
# name: <cell-element>
# type: matrix
# rows: 1000
# columns: 2
 0.5746798755324212 0.5476586017405549
 0.5211110060197603 0.4923506222504284
 0.4085105815046985 0.4687188113974144
 0.4907681054516297 0.4064103443624186
 0.4027117096865047 0.4363131955431657
 0.3593225508257036 0.4716069873025178
 0.4142140343990692 0.3915049258544399
 0.4425596699528425 0.3789208849847239
 0.3842567153727324 0.3683269057168191
 0.4458240459818755 0.4239902293766004
 0.477467473823401 0.3792568238329569
 0.4147621719978089 0.4804917552055409
 0.3660722189490904 0.4902938806486352
 0.4829273937773946 0.5275750575048554
 0.3930527515955656 0.5157807673036362
 0.3807842384715895 0.4809146316159677
 0.4464149375093294 0.5031698189794782
 0.4878713241830571 0.5240981383962037
 0.3904990295311517 0.5430780295674805
 0.4431237985525721 0.5229961523925413
 0.5334603883636558 0.5248605607869916
 0.4363551572000789 0.5171378064244283
 0.4335160648794663 0.5043190189975224
 0.4944454901511204 0.5182461550018044
 0.5693518100477998 0.5355157809091098
 0.5667644002618076 0.5310285147222753
 0.5383115611275845 0.5438706008526092
 0.540823085817088 0.5303614298229647
 0.5679123352840179 0.5377874050131174
 0.5790722910488095 0.5191494435026313
 0.5672835538344759 0.5226833282931184
 0.5702648233841412 0.5472799041466345
 0.5773363955694515 0.5517110099195681
 0.54334211929329 0.5371237342714695
 0.5643652963768053 0.5330893356186849
 0.5240828383790009 0.5329731271416147
 0.5208419748331291 0.5402507269173836
 0.5329084245122042 0.5285208937769608
 0.5161346226756144 0.5278840390897188
 0.5197470431333813 0.5332634680652105
 0.5511910576470821 0.5220972256653977
 0.5574798516604503 0.5260581405369743
 0.4733262896925717 0.5001417170588248
 0.5561140688999126 0.5308652994864309
 0.5143064081353617 0.5013999808618463
 0.4778063164601679 0.5317428975144218
 0.5668218109233567 0.5398084475437317
 0.5681696769346217 0.5242488348915602
 0.5537849525533971 0.5137163789849047
 0.5312665582623969 0.5226545364828987
 0.5616752499631558 0.5388997182067906
 0.4881701736541594 0.5325338335298641
 0.5197907411036916 0.5357700702206036
 0.5200147593755663 0.5241740584533628
 0.5661621734143976 0.5174130065356379
 0.516567457193116 0.5231804812364316
 0.5595421926286847 0.537397419334283
 0.527915627810763 0.5336518938992796
 0.5612697464514421 0.5066401717968043
 0.5193388447284263 0.5186823064028413
 0.5485880161270006 0.5122453430774513
 0.555857345744418 0.5151872904474414
 0.5545543606862786 0.5275874534170967
 0.5606976553958406 0.5071031501814928
 0.5159677415822447 0.5159357293803765
 0.5207407651023283 0.5165452431520842
 0.5193434187228345 0.5135791556112215
 0.5516449265113013 0.5214790820275496
 0.5179048770594937 0.5410352652793404
 0.5603788135693621 0.5319949258255994
 0.5445543159548595 0.5459337740588893
 0.5190784844459847 0.5334065958441028
 0.5220739357385142 0.5525712236315407
 0.533204114812449 0.5433508431287104
 0.5324006056510941 0.5463029436781053
 0.5178786002093386 0.5330796741867014
 0.5611218093728227 0.5316278602187595
 0.5196204047559831 0.5468430088245629
 0.5181715959585615 0.5479604327345948
 0.5626142019685051 0.5494709695854679
 0.5216670722587861 0.5573403139926542
 0.5206560417346864 0.5445292481987032
 0.5582437865194336 0.5449935715360942
 0.559488861867622 0.5217637380020439
 0.5603071737129133 0.5539503190364538
 0.5204294714572287 0.5440879401370756
 0.5600689009452509 0.5405481529213579
 0.5754928062356648 0.5309122257420675
 0.5182719620658975 0.5325160052377119
 0.5226534098117918 0.5445643678571653
 0.5588655514443188 0.5300267888311577
 0.5241809273856139 0.5497882964979285
 0.5202868929423698 0.5378690999511896
 0.5259317472773877 0.5389668487814534
 0.521295336086269 0.5235826173904008
 0.55988461425138 0.5333507340520717
 0.521234267516005 0.5292280426094831
 0.5595265588951865 0.5417351874267077
 0.5209512575081064 0.5369340637072596
 0.5574080184531831 0.5306470977433073
 0.559382167774698 0.5338731525869006
 0.5599308174023905 0.5520998211090755
 0.5600558736139035 0.5541383555754046
 0.5301464344335595 0.5327812024143669
 0.5193765216925603 0.5326832858216265
 0.559471766222157 0.5521227068858339
 0.5224425702110223 0.5576036941983207
 0.5607433630269104 0.5314413218116608
 0.5592980827480331 0.5434293066128872
 0.5231769736778745 0.5558899490243207
 0.5606976553958406 0.548015868727467
 0.5597768931403485 0.5564110876386043
 0.5206980044715497 0.5419735740983049
 0.566191429541964 0.5553842217770923
 0.5309879298528641 0.5378655692780711
 0.5609022204566482 0.519536233894436
 0.5704069137669432 0.5486869233658109
 0.5616095114819312 0.523476844154367
 0.5603934043843339 0.5419167065608572
 0.5195208347569596 0.529735516066506
 0.5589235600709366 0.5327642528922654
 0.5607385796605334 0.5434686279742361
 0.5212218175771649 0.535263020819829
 0.5698668652854246 0.5219832962295906
 0.5238089498138482 0.5385889299787884
 0.5610791054591753 0.5396614693952494
 0.5188321742312521 0.5429709754628639
 0.5199249665001625 0.5253475084317895
 0.5598936155111355 0.556940366503427
 0.5169047964561276 0.530604417733425
 0.5266501656829693 0.5408809372800957
 0.5259788415338186 0.5556620986658209
 0.5158556942461977 0.5442303068477785
 0.5576592574216439 0.5312510530046554
 0.5622605474235726 0.5387081251612196
 0.5177200027248203 0.5412538274033486
 0.5219233239786106 0.5447896787855968
 0.5210645895128478 0.5385193394506698
 0.5602704612509568 0.5463547002461617
 0.5203956409480252 0.5529151711711551
 0.5586043011329529 0.5413888390791306
 0.5217234924043562 0.5242334214902982
 0.5189553672384347 0.5302310443601053
 0.5216320443715565 0.5521345229781927
 0.5206100260455371 0.5519993177082441
 0.5195039716439911 0.5452947079732272
 0.5224109806895857 0.5342456708266432
 0.5606976553958406 0.5382002816412307
 0.5606119612097686 0.5463964713128858
 0.5194234063278186 0.5367423814065526
 0.5611123621453969 0.5602871966087348
 0.5652499140564718 0.5340294345144463
 0.5188159682266997 0.554343135538708
 0.558371262638243 0.5486009200984316
 0.5602044105522976 0.5329043625102178
 0.5597931820697356 0.5380432431957927
 0.5609705518871742 0.5313711122059608
 0.5657577846994752 0.5361421915968928
 0.5203956409480252 0.5351848525361924
 0.568866379763993 0.5357205196049775
 0.5596981271636813 0.5203956409480252
 0.5599549950774871 0.5203956409480252
 0.5248452716536777 0.5203956409480252
 0.5217782578886756 0.5203956409480252
 0.5605042714570353 0.5203956409480252
 0.5599294755542691 0.5369055889697238
 0.5203531892817442 0.5479873816271355
 0.5203956409480252 0.5555067810002917
 0.5220307066005964 0.5435279830470896
 0.5204453829193054 0.5462565832531427
 0.5213464094230906 0.5514853179860463
 0.564737842833028 0.5430449032105753
 0.5688894594107798 0.5545084098409564
 0.5182243398954236 0.5438966082233029
 0.519011944348619 0.5570193572067637
 0.5197276319563776 0.5413024389553344
 0.5265787659226809 0.5425522143339133
 0.5218521222573822 0.5386526623165597
 0.5213866120188374 0.5361437558569155
 0.5223043654251525 0.5447192900363806
 0.5185843273377713 0.5316568355303252
 0.5642343558130979 0.5410598000085253
 0.5241919198679068 0.5464266292075926
 0.5602364825858352 0.5358191859690921
 0.5227720649884819 0.5478594162443451
 0.5465747291914219 0.5315447845210952
 0.5235045872834739 0.5479540622744857
 0.5185421027908462 0.5452628176745921
 0.5609888635825017 0.5320910346379296
 0.5196399126735607 0.5574679149639902
 0.521169263845512 0.5452013151523667
 0.5613455361044793 0.5298578761896796
 0.5578989250242756 0.5339518146285659
 0.5226148554976261 0.5415283669173189
 0.5598977040594222 0.5533804964339839
 0.5210811860326557 0.5240561645636254
 0.5602037371235699 0.5369031699234434
 0.5607432292420124 0.550039512548079
 0.5606271878005998 0.5303316155473711
 0.5609251185347012 0.5514658655793944
 0.5210088198193141 0.558922395503205
 0.5601891833579609 0.536108996792766
 0.5206670989632634 0.5490729886624777
 0.5626138769120509 0.5452444230903754
 0.5591310782778103 0.5361036903194452
 0.5596659375162428 0.5586723557264676
 0.5224310328329421 0.5310406944091685
 0.5691137676510499 0.5208690126972156
 0.5205341417503677 0.5606976553958406
 0.5565066346428503 0.5606976553958406
 0.5601133133921121 0.5606976553958406
 0.5696759813162168 0.5606976553958406
 0.5226828834610043 0.5606976553958406
 0.5602178262914753 0.5606976553958406
 0.5617906951583902 0.5606976553958406
 0.5206936069455959 0.5606976553958406
 0.5606864027272285 0.5606976553958406
 0.5700951753495898 0.5606976553958406
 0.555869187996601 0.5606976553958406
 0.5205711686930018 0.5606976553958406
 0.522834744569233 0.5606976553958406
 0.5589417809583639 0.5606976553958406
 0.5664895772671762 0.5606976553958406
 0.5593617343493519 0.5606976553958406
 0.5214906345607345 0.5606976553958406
 0.5210052055802457 0.5606976553958406
 0.5229193255653586 0.5606976553958406
 0.5691428731250899 0.5606976553958406
 0.5227331469737561 0.5606976553958406
 0.5236689064802467 0.5606976553958406
 0.5605748858584694 0.5606976553958406
 0.5606780163994265 0.5606976553958406
 0.561905230999423 0.5606976553958406
 0.5258541265958491 0.5606976553958406
 0.5213810969387945 0.5606976553958406
 0.5217876912302031 0.5606976553958406
 0.5593118790894536 0.5606976553958406
 0.5575924586372968 0.5606976553958406
 0.5594283826131785 0.5606976553958406
 0.5213427218563043 0.5606976553958406
 0.5606976553958406 0.5606976553958406
 0.5617135201759532 0.5606976553958406
 0.5198186753680751 0.5606976553958406
 0.5603986464951571 0.5606976553958406
 0.5592003547054325 0.5606976553958406
 0.5205349604443842 0.5606976553958406
 0.5695827677451134 0.5606976553958406
 0.5588184310436958 0.5606976553958406
 0.5199763058782521 0.5606976553958406
 0.5219033908277815 0.5606976553958406
 0.5301824553463482 0.5606976553958406
 0.5592915499856556 0.5606976553958406
 0.5218010204221055 0.5606976553958406
 0.5602251581778983 0.5606976553958406
 0.5606976553958406 0.5606976553958406
 0.5748905756153132 0.5606976553958406
 0.5193159131155867 0.5606976553958406
 0.5596669498636263 0.5606976553958406
 0.5218397311773562 0.5606976553958406
 0.521559255541574 0.5606976553958406
 0.4841319309347449 0.5606976553958406
 0.5211528720816598 0.5606976553958406
 0.5611936340115531 0.5606976553958406
 0.56302690288206 0.5606976553958406
 0.5596742312080984 0.5606976553958406
 0.5594305253699735 0.5606976553958406
 0.5601266701736907 0.5606976553958406
 0.5676465084875539 0.5606976553958406
 0.5604149706080885 0.5606976553958406
 0.572580198500818 0.5606976553958406
 0.5400182923495558 0.5606976553958406
 0.5602260783127522 0.5606976553958406
 0.5200813966985214 0.5606976553958406
 0.5598511736869173 0.5606976553958406
 0.5607130662737402 0.5606976553958406
 0.5212167304229226 0.5606976553958406
 0.520691484221013 0.5606976553958406
 0.5608372956094838 0.5606976553958406
 0.5266484374465363 0.5606976553958406
 0.522272430620754 0.5606976553958406
 0.5606142609379541 0.5606976553958406
 0.5606976553958406 0.5606976553958406
 0.5223256238393473 0.5606976553958406
 0.5195133908293268 0.5606976553958406
 0.5211337329859567 0.5606976553958406
 0.561966722051096 0.5606976553958406
 0.5693241557503964 0.5606976553958406
 0.5199456584761931 0.5606976553958406
 0.5569961521923712 0.5606976553958406
 0.5686868782342747 0.5606976553958406
 0.5276465324494236 0.5606976553958406
 0.5599818487096262 0.5606976553958406
 0.5209873313822899 0.5606976553958406
 0.5603789138632406 0.5606976553958406
 0.5219916804692336 0.5606976553958406
 0.5310506167085982 0.5606976553958406
 0.5187275940085294 0.5606976553958406
 0.5590199300585088 0.5606976553958406
 0.5370371920793943 0.5606976553958406
 0.5184497166525859 0.5606976553958406
 0.563096945303813 0.5606976553958406
 0.5297690161983892 0.5606976553958406
 0.560112972498145 0.5606976553958406
 0.5590853479257156 0.5606976553958406
 0.5573280318241897 0.5606976553958406
 0.5202712320577016 0.5606976553958406
 0.5211791620676246 0.5606976553958406
 0.5576626559190705 0.5606976553958406
 0.5211847893697493 0.5606976553958406
 0.5594663014031399 0.5606976553958406
 0.5148973772539476 0.5606976553958406
 0.5598420803544086 0.5606976553958406
 0.5197798531869103 0.5606976553958406
 0.4762797694566704 0.5606976553958406
 0.5600210820359889 0.5606976553958406
 0.5263763757200781 0.5606976553958406
 0.5617045547314353 0.5606976553958406
 0.5212130427630638 0.5606976553958406
 0.5270576294841074 0.5606976553958406
 0.5229522626358146 0.5606976553958406
 0.5610406518978462 0.5606976553958406
 0.5194390837373543 0.5606976553958406
 0.5603113202327145 0.5606976553958406
 0.5218850473238665 0.5606976553958406
 0.5293302929726645 0.5606976553958406
 0.5680712723396589 0.5606976553958406
 0.5206068961538687 0.5606976553958406
 0.5609853618433087 0.5606976553958406
 0.5629952759285319 0.5606976553958406
 0.55884060295354 0.5606976553958406
 0.5609811657333059 0.5606976553958406
 0.5689517965069157 0.5606976553958406
 0.5569213476790256 0.5606976553958406
 0.5603712007013654 0.5606976553958406
 0.560187110187206 0.5606976553958406
 0.560117327909603 0.5606976553958406
 0.5604591637882442 0.5606976553958406
 0.5209366601515039 0.5606976553958406
 0.5206631446791747 0.5606976553958406
 0.5621138701721325 0.5606976553958406
 0.5184711414491774 0.5606976553958406
 0.5595774093732778 0.5606976553958406
 0.5702084864437758 0.5606976553958406
 0.560524350738968 0.5606976553958406
 0.5629661271678608 0.5606976553958406
 0.5585873012934424 0.5606976553958406
 0.5609787756524575 0.5606976553958406
 0.5596774218361211 0.5606976553958406
 0.5699807577627491 0.5606976553958406
 0.5776510971373278 0.5606976553958406
 0.5662155333510361 0.5606976553958406
 0.5601905893544324 0.5606976553958406
 0.5606842278337139 0.5606976553958406
 0.5696221068369256 0.5606976553958406
 0.559890805499027 0.5606976553958406
 0.5573594291900533 0.5606976553958406
 0.5591162015225701 0.5606976553958406
 0.5614056960888426 0.5606976553958406
 0.5605287379080081 0.5606976553958406
 0.5164658054680403 0.5606976553958406
 0.5674454709715021 0.5606976553958406
 0.5694558589182337 0.5606976553958406
 0.5168603999309757 0.5606976553958406
 0.5604291438998609 0.5606976553958406
 0.5602084270358501 0.5606976553958406
 0.5606365461423088 0.5606976553958406
 0.5600569223357856 0.5606976553958406
 0.5610565400807201 0.5606976553958406
 0.5610412960535753 0.5606976553958406
 0.5589092600004548 0.5606976553958406
 0.5609252282475568 0.5606976553958406
 0.5559555110558015 0.5606976553958406
 0.5363557767131257 0.5606976553958406
 0.5595701216191584 0.5606976553958406
 0.5630478640818618 0.5606976553958406
 0.5582812472937791 0.5606976553958406
 0.5603665567592423 0.5606976553958406
 0.5597281329221772 0.5606976553958406
 0.5606834623596856 0.5606976553958406
 0.5611059056325994 0.5606976553958406
 0.5625550150573893 0.5606976553958406
 0.5608492470913651 0.5606976553958406
 0.5606456689493842 0.5606976553958406
 0.5606976553958406 0.5606976553958406
 0.563320690067151 0.5606976553958406
 0.5574590954017264 0.5606976553958406
 0.5592182544526891 0.5606976553958406
 0.5607138482222047 0.5606976553958406
 0.5591904902637982 0.5606976553958406
 0.5703856349174125 0.5606976553958406
 0.5613864941289671 0.5606976553958406
 0.5606874922491102 0.5606976553958406
 0.5610517004499517 0.5606976553958406
 0.5630978875246226 0.5606976553958406
 0.5606976553958406 0.5606976553958406
 0.5641542138331257 0.5606976553958406
 0.5661597075988062 0.5606976553958406
 0.5612635932598989 0.5606976553958406
 0.559254352436396 0.5606976553958406
 0.5603872342510189 0.5606976553958406
 0.5606976553958406 0.5606976553958406
 0.5606389461770411 0.5606976553958406
 0.5594104628613271 0.5606976553958406
 0.5603948666732719 0.5606976553958406
 0.5609166726042728 0.5606976553958406
 0.5610466800854023 0.5606976553958406
 0.5609582067803933 0.5606976553958406
 0.5608151131224804 0.5606976553958406
 0.5608999578046604 0.5606976553958406
 0.5606485639550263 0.5606976553958406
 0.5609743898244973 0.5606976553958406
 0.5615011275081677 0.5606976553958406
 0.5590504904927776 0.5606976553958406
 0.5603932858446128 0.5606976553958406
 0.5601602757792914 0.5606976553958406
 0.5605186482137874 0.5606976553958406
 0.5168073464321451 0.5606976553958406
 0.5710806126432436 0.5606976553958406
 0.5669255218315642 0.5606976553958406
 0.5631852082831605 0.5606976553958406
 0.5618587129580428 0.5606976553958406
 0.5672261701535614 0.5606976553958406
 0.5608704713993061 0.5606976553958406
 0.5698768335327095 0.5606976553958406
 0.5597999639775219 0.5606976553958406
 0.5602910961093512 0.5606976553958406
 0.5613818811753836 0.5606976553958406
 0.5699311061113986 0.5606976553958406
 0.5606976553958406 0.5606976553958406
 0.5609658102404801 0.5606976553958406
 0.5604837222616414 0.5606976553958406
 0.5623589048816998 0.5606976553958406
 0.5606976553958406 0.5606976553958406
 0.5613197651606485 0.5606976553958406
 0.5652657711370517 0.5606976553958406
 0.5606976553958406 0.5606976553958406
 0.5595301472916793 0.5606976553958406
 0.5606976553958406 0.5606976553958406
 0.5606359512446668 0.5606976553958406
 0.5769443235904644 0.5606976553958406
 0.5693936859466726 0.5606976553958406
 0.5588829540355866 0.5606976553958406
 0.5598767151256325 0.5606976553958406
 0.560006071508342 0.5606976553958406
 0.569380890628415 0.5606976553958406
 0.5598523428314423 0.5606976553958406
 0.5606920899987402 0.5606976553958406
 0.5677755030104303 0.5606976553958406
 0.560858603786178 0.5606976553958406
 0.5751189052075334 0.5606976553958406
 0.5701264898931319 0.5606976553958406
 0.5705062119005834 0.5606976553958406
 0.5700673401205851 0.5606976553958406
 0.5687349850476096 0.5606976553958406
 0.5739392146575888 0.5606976553958406
 0.5592184752303027 0.5606976553958406
 0.5606976553958406 0.5606976553958406
 0.5677967012732301 0.5606976553958406
 0.570417634646704 0.5606976553958406
 0.5681344713647413 0.5606976553958406
 0.5586717095182501 0.5606976553958406
 0.5611764699245806 0.5606976553958406
 0.5746929639561844 0.5606976553958406
 0.5703947680315363 0.5606976553958406
 0.5805235103055556 0.5606976553958406
 0.5699089250374912 0.5606976553958406
 0.6471196944487372 0.5606976553958406
 0.6589304940690979 0.5606976553958406
 0.6586627679460795 0.5606976553958406
 0.6379309801952845 0.5606976553958406
 0.6492864756305718 0.5606976553958406
 0.6350384286470576 0.5606976553958406
 0.6581748533941425 0.5606976553958406
 0.6460109928001659 0.5606976553958406
 0.6677248641758655 0.5606976553958406
 0.6426462302720762 0.5606976553958406
 0.649978242699278 0.5606976553958406
 0.6476788033340539 0.5606976553958406
 0.6498776366151428 0.5606976553958406
 0.6581920579412249 0.5606976553958406
 0.65755991416796 0.5606976553958406
 0.6574170007383429 0.5606976553958406
 0.6560490586009781 0.5606976553958406
 0.5647924640547664 0.5606976553958406
 0.6497517011498418 0.5606976553958406
 0.5774514418897359 0.5606976553958406
 0.5716065516724816 0.5606976553958406
 0.5611234604506911 0.5606976553958406
 0.573909446134636 0.5606976553958406
 0.5681342330048663 0.5606976553958406
 0.5805385454888172 0.5606976553958406
 0.5747510324640352 0.5606976553958406
 0.5740475515809103 0.5606976553958406
 0.5840949847713297 0.5606976553958406
 0.5799786817894332 0.5606976553958406
 0.5310738380410939 0.5606976553958406
 0.5797135294808883 0.5606976553958406
 0.5705515911830615 0.5606976553958406
 0.5798003212567127 0.5606976553958406
 0.5691885557773759 0.5606976553958406
 0.5732947666895071 0.5606976553958406
 0.5837588195640273 0.5606976553958406
 0.5705385901783092 0.5606976553958406
 0.5714520092761823 0.5606976553958406
 0.582818393641733 0.5606976553958406
 0.5696603766592756 0.5606976553958406
 0.5810120570569939 0.5606976553958406
 0.5707280492330804 0.5606976553958406
 0.5718152626284242 0.5606976553958406
 0.5707591691077732 0.5606976553958406
 0.5668634760759277 0.5606976553958406
 0.5780680480125057 0.5606976553958406
 0.5658898465456477 0.5606976553958406
 0.5878328508799215 0.5606976553958406
 0.5725805739689923 0.5606976553958406
 0.5705062119005834 0.5606976553958406
 0.5701983308325081 0.5606976553958406
 0.5779643621974483 0.5606976553958406
 0.5705773421739015 0.5606976553958406
 0.5702593812472632 0.5606976553958406
 0.5717304985831859 0.5606976553958406
 0.5712490973530457 0.5606976553958406
 0.6499756115454235 0.5606976553958406
 0.5730016674175411 0.5606976553958406
 0.5744571361117634 0.5606976553958406
 0.5710563026425287 0.5606976553958406
 0.5731073012915381 0.5606976553958406
 0.5720072949576702 0.5606976553958406
 0.5659534872237012 0.5606976553958406
 0.5689563874365806 0.5606976553958406
 0.5740570076858421 0.5606976553958406
 0.5712711515038824 0.5606976553958406
 0.5762813232855102 0.5606976553958406
 0.5701397253377465 0.5606976553958406
 0.5734024177693966 0.5606976553958406
 0.565020063465833 0.5606976553958406
 0.5706293881086806 0.5606976553958406
 0.5704986258600732 0.5606976553958406
 0.568836898062049 0.5606976553958406
 0.5729594179127214 0.5606976553958406
 0.5705609723203201 0.5606976553958406
 0.5736034057148279 0.5606976553958406
 0.5810915815990034 0.5606976553958406
 0.5705062119005834 0.5606976553958406
 0.5699141850806815 0.5606976553958406
 0.571794220022297 0.5606976553958406
 0.5256142451205135 0.5606976553958406
 0.5735404664214231 0.5606976553958406
 0.5267336101918362 0.5606976553958406
 0.5287709207998983 0.5606976553958406
 0.568634737923308 0.5606976553958406
 0.5259435540270148 0.5606976553958406
 0.5286651433312477 0.5606976553958406
 0.5806189945107114 0.5606976553958406
 0.5305485522990117 0.5606976553958406
 0.5690570059733775 0.5606976553958406
 0.5273597283462108 0.5606976553958406
 0.5737362765901486 0.5606976553958406
 0.5388295162074982 0.5606976553958406
 0.5693376470309994 0.5606976553958406
 0.5295520592574937 0.5606976553958406
 0.5705062119005834 0.5606976553958406
 0.5657646217165633 0.5606976553958406
 0.5278550330078454 0.5606976553958406
 0.5252519164573066 0.5606976553958406
 0.5263234157508411 0.5606976553958406
 0.5267689904975354 0.5606976553958406
 0.5690661109965244 0.5606976553958406
 0.5283441066930621 0.5606976553958406
 0.5250462114008793 0.5606976553958406
 0.5381613548046896 0.5606976553958406
 0.5256408502960428 0.5606976553958406
 0.5254752256749875 0.5606976553958406
 0.5326925220108086 0.5606976553958406
 0.5280787243196512 0.5606976553958406
 0.5274237114311325 0.5606976553958406
 0.5254925794438178 0.5606976553958406
 0.5285557532264925 0.5606976553958406
 0.5276828687110988 0.5606976553958406
 0.5273840976919377 0.5606976553958406
 0.5274446197151321 0.5606976553958406
 0.5279893382419438 0.5606976553958406
 0.5253916558644691 0.5606976553958406
 0.5694534412782493 0.5606976553958406
 0.5264992603727711 0.5606976553958406
 0.5694046175562829 0.5606976553958406
 0.5253916558644691 0.5606976553958406
 0.5670021681651859 0.5606976553958406
 0.5264840419789311 0.5606976553958406
 0.5255346725319766 0.5606976553958406
 0.5318027674921743 0.5606976553958406
 0.5281861354791844 0.5606976553958406
 0.5252077548379109 0.5606976553958406
 0.5248477953692794 0.5606976553958406
 0.5251678232683857 0.5606976553958406
 0.5278400677525732 0.5606976553958406
 0.5293322136031681 0.5606976553958406
 0.5253916558644691 0.5606976553958406
 0.525734029503712 0.5606976553958406
 0.5256551347546216 0.5606976553958406
 0.5261654140308396 0.5606976553958406
 0.5261008352103731 0.5606976553958406
 0.5261890017488599 0.5606976553958406
 0.527197858165121 0.5606976553958406
 0.5272886695917859 0.5606976553958406
 0.5256764209048927 0.5606976553958406
 0.5268039345228693 0.5606976553958406
 0.5260530197304957 0.5606976553958406
 0.5258898115646512 0.5606976553958406
 0.5254457071710433 0.5606976553958406
 0.5253916558644691 0.5606976553958406
 0.5254176446015811 0.5606976553958406
 0.5269958473078724 0.5606976553958406
 0.5253916558644691 0.5606976553958406
 0.5269835440358573 0.5606976553958406
 0.5253916558644691 0.5606976553958406
 0.5298655301615895 0.5606976553958406
 0.5338237844550586 0.5606976553958406
 0.5254571981673326 0.5606976553958406
 0.5705062119005834 0.5606976553958406
 0.5266312762030563 0.5606976553958406
 0.5417090973780381 0.5606976553958406
 0.5260059439250383 0.5606976553958406
 0.5254326502551365 0.5606976553958406
 0.5262969008741827 0.5606976553958406
 0.5253916558644691 0.5606976553958406
 0.530706844787905 0.5606976553958406
 0.5248680793558992 0.5606976553958406
 0.5273910162840044 0.5606976553958406
 0.5259303374388519 0.5606976553958406
 0.5268877352796 0.5606976553958406
 0.538135843460772 0.5606976553958406
 0.5266134049420176 0.5606976553958406
 0.5285068613724332 0.5606976553958406
 0.5258314014013057 0.5606976553958406
 0.525546020126146 0.5606976553958406
 0.6553847015053467 0.5606976553958406
 0.5257790335670863 0.5606976553958406
 0.5715383178881727 0.5606976553958406
 0.6545154764978843 0.5606976553958406
 0.5718372809595911 0.5606976553958406
 0.5862479136923661 0.5606976553958406
 0.6501051022155334 0.5606976553958406
 0.6565400046854762 0.5606976553958406
 0.5695449265908084 0.5606976553958406
 0.5711632483067679 0.5606976553958406
 0.6472892059151882 0.5606976553958406
 0.6560351797670544 0.5606976553958406
 0.6578288722933786 0.5606976553958406
 0.5705965280331597 0.5606976553958406
 0.5694839897738878 0.5606976553958406
 0.569143532763192 0.5606976553958406
 0.5677017629748691 0.5606976553958406
 0.5707267915347687 0.5606976553958406
 0.571083435011395 0.5606976553958406
 0.6116350127617675 0.5606976553958406
 0.5705039915919622 0.5606976553958406
 0.5720216443213834 0.5606976553958406
 0.6552944862331795 0.5606976553958406
 0.5714469890911075 0.5606976553958406
 0.5845879901504392 0.5606976553958406
 0.5758662120717091 0.5606976553958406
 0.5692466777294116 0.5606976553958406
 0.5713784377545205 0.5606976553958406
 0.57514499978796 0.5606976553958406
 0.5721289370210949 0.5606976553958406
 0.5322515132208305 0.5606976553958406
 0.5258018249734371 0.5606976553958406
 0.5822555031670555 0.5606976553958406
 0.5704472421540817 0.5606976553958406
 0.5279842898507588 0.5606976553958406
 0.574696788915083 0.5606976553958406
 0.5712487030318601 0.5606976553958406
 0.5591209281976715 0.5606976553958406
 0.5610904945619745 0.5606976553958406
 0.5711396376261614 0.5606976553958406
 0.575585950949549 0.5606976553958406
 0.5269745628127804 0.5606976553958406
 0.5611733022083291 0.5606976553958406
 0.569379068462035 0.5606976553958406
 0.5609109360618362 0.5606976553958406
 0.5679010857704687 0.5606976553958406
 0.5689556115991756 0.5606976553958406
 0.5746543070497834 0.5606976553958406
 0.5687350993139247 0.5606976553958406
 0.6140508879323514 0.5606976553958406
 0.5606821278236411 0.5606976553958406
 0.5734337861501604 0.5606976553958406
 0.5697263215465517 0.5606976553958406
 0.5712901715084177 0.5606976553958406
 0.6583633027605138 0.5606976553958406
 0.654875497065411 0.5606976553958406
 0.6469747124578891 0.5606976553958406
 0.5645681433230748 0.5606976553958406
 0.5810017403997794 0.5606976553958406
 0.5649240454843655 0.5606976553958406
 0.5756625777759503 0.5606976553958406
 0.5736410258463097 0.5606976553958406
 0.5730036975063885 0.5606976553958406
 0.5746555450018844 0.5606976553958406
 0.6586755038591593 0.5606976553958406
 0.6523215827755274 0.5606976553958406
 0.572177995609412 0.5606976553958406
 0.5308822059756961 0.5606976553958406
 0.6445869017023624 0.5606976553958406
 0.6491192217331809 0.5606976553958406
 0.5706240098541943 0.5606976553958406
 0.6489682921498593 0.5606976553958406
 0.5700687207579319 0.5606976553958406
 0.5277070990738538 0.5606976553958406
 0.6520829928994816 0.5606976553958406
 0.5709021650056831 0.5606976553958406
 0.5704847033764426 0.5606976553958406
 0.5708009815427054 0.5606976553958406
 0.5767132968310048 0.5606976553958406
 0.5696048245598205 0.5606976553958406
 0.6487784686356581 0.5606976553958406
 0.5766259318454355 0.5606976553958406
 0.6481813222074944 0.5606976553958406