# Created by Octave 4.0.0, Mon May 14 15:16:16 2018 CEST <olethros@olethros-OptiPlex-9010>
# name: results
# type: struct
# ndims: 2
 1 5
# length: 8
# name: options
# type: cell
# rows: 1
# columns: 5
# name: <cell-element>
# type: scalar struct
# ndims: 2
 1 1
# length: 8
# name: A
# type: scalar
2


# name: X
# type: scalar
8


# name: Y
# type: scalar
2


# name: Z
# type: scalar
2


# name: lambda
# type: scalar
0


# name: n_iter
# type: scalar
10000


# name: horizon
# type: scalar
1000


# name: n_samples
# type: scalar
16





# name: <cell-element>
# type: scalar struct
# ndims: 2
 1 1
# length: 8
# name: A
# type: scalar
2


# name: X
# type: scalar
8


# name: Y
# type: scalar
2


# name: Z
# type: scalar
2


# name: lambda
# type: scalar
0.25


# name: n_iter
# type: scalar
10000


# name: horizon
# type: scalar
1000


# name: n_samples
# type: scalar
16





# name: <cell-element>
# type: scalar struct
# ndims: 2
 1 1
# length: 8
# name: A
# type: scalar
2


# name: X
# type: scalar
8


# name: Y
# type: scalar
2


# name: Z
# type: scalar
2


# name: lambda
# type: scalar
0.5


# name: n_iter
# type: scalar
10000


# name: horizon
# type: scalar
1000


# name: n_samples
# type: scalar
16





# name: <cell-element>
# type: scalar struct
# ndims: 2
 1 1
# length: 8
# name: A
# type: scalar
2


# name: X
# type: scalar
8


# name: Y
# type: scalar
2


# name: Z
# type: scalar
2


# name: lambda
# type: scalar
0.75


# name: n_iter
# type: scalar
10000


# name: horizon
# type: scalar
1000


# name: n_samples
# type: scalar
16





# name: <cell-element>
# type: scalar struct
# ndims: 2
 1 1
# length: 8
# name: A
# type: scalar
2


# name: X
# type: scalar
8


# name: Y
# type: scalar
2


# name: Z
# type: scalar
2


# name: lambda
# type: scalar
1


# name: n_iter
# type: scalar
10000


# name: horizon
# type: scalar
1000


# name: n_samples
# type: scalar
16







# name: PU
# type: cell
# rows: 1
# columns: 5
# name: <cell-element>
# type: matrix
# rows: 1000
# columns: 2
 0.5618034843922797 0.4452047463427827
 0.512025614295992 0.4452047463427827
 0.5028054880880928 0.4681065288696662
 0.4928695159402123 0.4737934388856183
 0.519480500146501 0.4873189223752912
 0.5257156582134317 0.5232867199087378
 0.5101406974583387 0.5702461644210201
 0.5406996275237528 0.49661870518361
 0.6297922127051845 0.5246806579741191
 0.5190889383198407 0.5309899857709188
 0.5550640951704507 0.5739178875618623
 0.5994458165546137 0.5874754802246742
 0.6067996472133073 0.5680900871766574
 0.6155665141643136 0.5872120079813082
 0.5519845767008849 0.5732261694011295
 0.5287295969950402 0.6004688475152125
 0.5981885626477286 0.5852092376457946
 0.6232552738226343 0.6237717244101172
 0.5623838179119997 0.6236017582587167
 0.6194274299828054 0.6061527658478971
 0.6178886920524921 0.5757772950933429
 0.5699175146072503 0.628592266586029
 0.5558807153497797 0.6327860634173997
 0.5501366291886126 0.6249320071113301
 0.6215246145927351 0.626164122786545
 0.6326387515320979 0.6300209419132693
 0.6206623454998794 0.6239616630677869
 0.6229093547057497 0.623760442666627
 0.6187286653008771 0.6220217233451687
 0.6233147182924513 0.623143816570267
 0.6233588344054699 0.6230334520209948
 0.6188782591837803 0.6226278870118925
 0.6209377029814896 0.6222515757389167
 0.6238195895921984 0.623134703772882
 0.6177205260984859 0.6227587411139787
 0.6234384604304581 0.6226940331348418
 0.6170282869464079 0.6228457609089123
 0.6238846428491621 0.6229645624606625
 0.6197062240190421 0.6234750990920722
 0.6238131795809557 0.6236938428909521
 0.6201570167756379 0.6229559327229668
 0.6226551575161414 0.623849964844762
 0.6240419163681288 0.623937304033845
 0.6238089128151386 0.6225168884728772
 0.6183071514921453 0.6225971231078934
 0.6196545412284727 0.6238619675899334
 0.6240060809913417 0.6222173563873727
 0.6209977553843811 0.6236211356481782
 0.6138233647122896 0.623059565534425
 0.6032125013488983 0.6229871476727756
 0.6194719515522006 0.623923857332366
 0.6222722341610476 0.6228150388078859
 0.6219941629505459 0.6229263467859032
 0.6240353323821295 0.6232585953245053
 0.6218012799866917 0.6233018144494067
 0.6211355814660386 0.6230075588661288
 0.6210160131155118 0.6225890241355078
 0.6130715347224068 0.6223297979181959
 0.616867602724977 0.6238677537553574
 0.6192886479148019 0.6229487288337451
 0.6204197466383066 0.623236625431362
 0.6205463975275547 0.622908207915756
 0.62167002114843 0.6234292698560379
 0.6192300751539924 0.6235798986248365
 0.621638104795447 0.6227309332977833
 0.6240419163681288 0.623367085040061
 0.6237244538917786 0.6230934432908807
 0.6219246160380519 0.6232459189106474
 0.6131615232080937 0.623576368316995
 0.6160030189568806 0.6221607644040108
 0.623089063647601 0.6225164331618838
 0.6213366598548262 0.6224002196351548
 0.6217300980268181 0.6231464723184832
 0.6223882990832442 0.623157295124648
 0.6215852510123198 0.6233145716196791
 0.6219815817006635 0.623895461472166
 0.61714786337836 0.6220163256693819
 0.6234167517266068 0.6221345080902897
 0.6239241899957841 0.6232657928921091
 0.6175200987032016 0.622847468792651
 0.6206999663419255 0.6228856570901409
 0.6221559120819833 0.6225604071051084
 0.6172025618634132 0.6230061637367467
 0.6209875014516641 0.622751206715579
 0.6231032760127362 0.6222998592826163
 0.6223234149810233 0.6229133964384321
 0.6237401341727917 0.6231204847595471
 0.6210132442549644 0.6237380944876375
 0.6240376858968172 0.6220817023984624
 0.6176108369085451 0.6239063617474477
 0.6154565889675137 0.6227448155436355
 0.6215665969166739 0.6234884223581522
 0.6240419163681288 0.6235602192182648
 0.6240419163681288 0.6236024443545647
 0.6241598271614714 0.6222667865143956
 0.6187088849708013 0.6223357824168783
 0.623917657120121 0.6222920254204826
 0.6239789839262848 0.6230281561168101
 0.6240236101655252 0.6235839202827198
 0.6241196888171455 0.6227777282241824
 0.6240171511847794 0.6224131638344993
 0.6170258621168719 0.6227365433336642
 0.6240419163681288 0.6221155827361668
 0.6178451449315754 0.6228105469383401
 0.6241344395293246 0.6224976914144916
 0.6178724535630612 0.6227234700430428
 0.6234406586377758 0.622748417176694
 0.6239729331236226 0.6235171870091684
 0.6240419163681288 0.6232503759694999
 0.6236522199335903 0.6223666133202473
 0.624224134008591 0.6227278231683755
 0.6182057489308384 0.6224032527995752
 0.6240609958141283 0.6229897597225418
 0.6177613325327045 0.6236318128550502
 0.6240419163681288 0.6231604661960819
 0.6225386099322749 0.6231416568088681
 0.6239948103332779 0.6226386930932292
 0.6234142933703338 0.6230718575450204
 0.6199928889844327 0.6240419163681288
 0.6163777652210533 0.6240419163681288
 0.6240306117678849 0.6240419163681288
 0.6222792113261786 0.6240419163681288
 0.6232977914835097 0.6240419163681288
 0.6121274720917927 0.6240419163681288
 0.6240419163681288 0.6240419163681288
 0.6239222175400263 0.6240419163681288
 0.623848648051456 0.6240419163681288
 0.622944937267821 0.6240419163681288
 0.6238048459274385 0.6240419163681288
 0.6220349742916236 0.6240419163681288
 0.6226832046461193 0.6240419163681288
 0.6148408750464429 0.6240419163681288
 0.6239539598821014 0.6240419163681288
 0.6239581850184212 0.6240419163681288
 0.6110548915659774 0.6240419163681288
 0.617353921986952 0.6240419163681288
 0.6240363690097026 0.6240419163681288
 0.6233977282855497 0.6240419163681288
 0.6231553492002294 0.6240419163681288
 0.6224547943097314 0.6240419163681288
 0.6240684907955266 0.6240419163681288
 0.6175061858048863 0.6240419163681288
 0.6188233640778407 0.6240419163681288
 0.6185806844847497 0.6240419163681288
 0.6202970629635283 0.6240419163681288
 0.6230919167657738 0.6240419163681288
 0.6229096803777865 0.6240419163681288
 0.6224525641925888 0.6240419163681288
 0.6211535361686499 0.6240419163681288
 0.6228161041092403 0.6240419163681288
 0.6240419163681288 0.6240419163681288
 0.6218154866368548 0.6240419163681288
 0.6215405341140792 0.6240419163681288
 0.6201189996122373 0.6240419163681288
 0.6240419163681288 0.6240419163681288
 0.6235679947272929 0.6240419163681288
 0.6240419163681288 0.6240419163681288
 0.623758717352134 0.6240419163681288
 0.6237202764456814 0.6240419163681288
 0.6231028591001097 0.6240419163681288
 0.6238137546195291 0.6240419163681288
 0.6202822925726612 0.6240419163681288
 0.6186824184408177 0.6240419163681288
 0.6240419163681288 0.6240419163681288
 0.6240419163681288 0.6240419163681288
 0.6203870312423632 0.6240419163681288
 0.6238731488173137 0.6240419163681288
 0.6238234451187519 0.6240419163681288
 0.6214233684266244 0.6240419163681288
 0.6234134281646118 0.6240419163681288
 0.6196951584459156 0.6240419163681288
 0.6240247568475671 0.6240419163681288
 0.624079374654426 0.6240419163681288
 0.6212249885578223 0.6240419163681288
 0.619266698746387 0.6240419163681288
 0.6240222258834636 0.6240419163681288
 0.6173833654813118 0.6240419163681288
 0.6239194475502007 0.6240419163681288
 0.6172775971723113 0.6240419163681288
 0.6239456260016499 0.6240419163681288
 0.6221061531229839 0.6240419163681288
 0.6189470715899812 0.6240419163681288
 0.6240601289751859 0.6240419163681288
 0.6240243049606325 0.6240419163681288
 0.6240150061677442 0.6240419163681288
 0.6233120811822717 0.6240419163681288
 0.6240419163681288 0.6240419163681288
 0.6240419163681288 0.6240419163681288
 0.6227225646882343 0.6240419163681288
 0.6170878992197163 0.6240419163681288
 0.6234043855758128 0.6240419163681288
 0.6242005608857181 0.6240419163681288
 0.6200381811996746 0.6240419163681288
 0.6206449135555893 0.6240419163681288
 0.6235786255128251 0.6240419163681288
 0.623978412862318 0.6240419163681288
 0.6238474644690569 0.6240419163681288
 0.6222345217425196 0.6240419163681288
 0.6240221379735407 0.6240419163681288
 0.6234916006471862 0.6240419163681288
 0.624024434355589 0.6240419163681288
 0.6217389871203146 0.6240419163681288
 0.6240235304782531 0.6240419163681288
 0.6221846367867435 0.6240419163681288
 0.6231664267912772 0.6240419163681288
 0.6232213273650027 0.6240419163681288
 0.6202205528414706 0.6240419163681288
 0.6236388288296135 0.6240419163681288
 0.6243167365943229 0.6240419163681288
 0.6228595354920629 0.6240419163681288
 0.6240852542323729 0.6240419163681288
 0.6240169613304962 0.6240419163681288
 0.6238348888923774 0.6240419163681288
 0.6196523265476641 0.6240419163681288
 0.6077148501296412 0.6240419163681288
 0.6235371839019237 0.6240419163681288
 0.6209655299039524 0.6240419163681288
 0.6233064816220468 0.6240419163681288
 0.6234993027661734 0.6240419163681288
 0.6227678849527541 0.6240419163681288
 0.6241969499433236 0.6240419163681288
 0.6240419163681288 0.6240419163681288
 0.624002075576875 0.6240419163681288
 0.6239770033380635 0.6240419163681288
 0.623035706708216 0.6240419163681288
 0.6212286867937343 0.6240419163681288
 0.622414461624193 0.6240419163681288
 0.6237593258804247 0.6240419163681288
 0.6238390390413406 0.6240419163681288
 0.6226929815527735 0.6240419163681288
 0.6240419163681288 0.6240419163681288
 0.6229114580544307 0.6240419163681288
 0.6240419163681288 0.6240419163681288
 0.6208592527566892 0.6240419163681288
 0.6240419163681288 0.6240419163681288
 0.6240637775636427 0.6240419163681288
 0.6198613317433957 0.6240419163681288
 0.6185109550756769 0.6240419163681288
 0.6217428375513788 0.6240419163681288
 0.6240419163681288 0.6240419163681288
 0.6240419163681288 0.6240419163681288
 0.6240419163681288 0.6240419163681288
 0.6235422188834192 0.6240419163681288
 0.6209587503460196 0.6240419163681288
 0.6240419163681288 0.6240419163681288
 0.621949338960132 0.6240419163681288
 0.6188395771974162 0.6240419163681288
 0.622789236647259 0.6240419163681288
 0.621187372120012 0.6240419163681288
 0.618315037628162 0.6240419163681288
 0.6219438309969194 0.6240419163681288
 0.6235732560764369 0.6240419163681288
 0.6240419163681288 0.6240419163681288
 0.6164373304764581 0.6240419163681288
 0.623059907753048 0.6240419163681288
 0.6243242461197478 0.6240419163681288
 0.6241452945638403 0.6240419163681288
 0.6210339432333356 0.6240419163681288
 0.6128222369430041 0.6240419163681288
 0.624184211778771 0.6240419163681288
 0.6240085101857193 0.6240419163681288
 0.624028746739794 0.6240419163681288
 0.6211530231398793 0.6240419163681288
 0.6219677882150538 0.6240419163681288
 0.6223840867598949 0.6240419163681288
 0.624003805454439 0.6240419163681288
 0.6191224512079285 0.6240419163681288
 0.617276078583828 0.6240419163681288
 0.624027510504934 0.6240419163681288
 0.6222347948349204 0.6240419163681288
 0.6209712444205459 0.6240419163681288
 0.6240419163681288 0.6240419163681288
 0.6217910897021327 0.6240419163681288
 0.6240419163681288 0.6240419163681288
 0.6234140245663665 0.6240419163681288
 0.6221235616621227 0.6240419163681288
 0.6240364080358497 0.6240419163681288
 0.6240202652472709 0.6240419163681288
 0.6232272196927997 0.6240419163681288
 0.6239583134249556 0.6240419163681288
 0.6240419163681288 0.6240419163681288
 0.6213157645114025 0.6240419163681288
 0.6208970396077775 0.6240419163681288
 0.6140117211964675 0.6240419163681288
 0.6238185491447602 0.6240419163681288
 0.623736043964039 0.6240419163681288
 0.6219767722754481 0.6240419163681288
 0.6165176188073287 0.6240419163681288
 0.6204465335651108 0.6240419163681288
 0.6203176466574185 0.6240419163681288
 0.623667484908708 0.6240419163681288
 0.6240419163681288 0.6240419163681288
 0.6226134962800247 0.6240419163681288
 0.6240419163681288 0.6240419163681288
 0.620161409589142 0.6240419163681288
 0.6157122241357432 0.6240419163681288
 0.6240419163681288 0.6240419163681288
 0.6239368520977354 0.6240419163681288
 0.6225462399775604 0.6240419163681288
 0.6232378199000815 0.6240419163681288
 0.6217069055622197 0.6240419163681288
 0.6187161686450459 0.6240419163681288
 0.6240419163681288 0.6240419163681288
 0.6139601566910516 0.6240419163681288
 0.6238060829193212 0.6240419163681288
 0.6235578004283183 0.6240419163681288
 0.6199267508356947 0.6240419163681288
 0.6240537775562259 0.6240419163681288
 0.6239744598029403 0.6240419163681288
 0.6243471220597601 0.6240419163681288
 0.6224242115998391 0.6240419163681288
 0.6223730321253338 0.6240419163681288
 0.6200831698068945 0.6240419163681288
 0.6240197512177137 0.6240419163681288
 0.6240419163681288 0.6240419163681288
 0.6230361016984716 0.6240419163681288
 0.6240419163681288 0.6240419163681288
 0.6201163660905883 0.6240419163681288
 0.6236257110221164 0.6240419163681288
 0.6240419163681288 0.6240419163681288
 0.6240167501189189 0.6240419163681288
 0.5253395796081403 0.6240419163681288
 0.6226516638257629 0.6240419163681288
 0.6235979159109771 0.6240419163681288
 0.6239753976362075 0.6240419163681288
 0.6196244851728739 0.6240419163681288
 0.6240574067243199 0.6240419163681288
 0.6240419163681288 0.6240419163681288
 0.6242144015509707 0.6240419163681288
 0.6229431634516746 0.6240419163681288
 0.6208194227074537 0.6240419163681288
 0.6240419163681288 0.6240419163681288
 0.6206893026562513 0.6240419163681288
 0.6229735952884489 0.6240419163681288
 0.6185385049428388 0.6240419163681288
 0.6241850676217704 0.6240419163681288
 0.6192405311608435 0.6240419163681288
 0.6239684346981653 0.6240419163681288
 0.6175884597850886 0.6240419163681288
 0.6240380994050314 0.6240419163681288
 0.6240419163681288 0.6240419163681288
 0.6232389319528345 0.6240419163681288
 0.6239985436534261 0.6240419163681288
 0.6224849782633769 0.6240419163681288
 0.6240253389122173 0.6240419163681288
 0.6225070674378804 0.6240419163681288
 0.6171440018956934 0.6240419163681288
 0.623689037086869 0.6240419163681288
 0.6211711046993404 0.6240419163681288
 0.6200928245029868 0.6240419163681288
 0.6224232915984559 0.6240419163681288
 0.6183392512002466 0.6240419163681288
 0.620145632258328 0.6240419163681288
 0.624128479483905 0.6240419163681288
 0.6242032432918208 0.6240419163681288
 0.6223468942529861 0.6240419163681288
 0.6240419163681288 0.6240419163681288
 0.6240419163681288 0.6240419163681288
 0.6240419163681288 0.6240419163681288
 0.6193315737426773 0.6240419163681288
 0.6161549324105872 0.6240419163681288
 0.6186515317665555 0.6240419163681288
 0.6239211687591216 0.6240419163681288
 0.6218998088897838 0.6240419163681288
 0.6215985024936955 0.6240419163681288
 0.6212768654384114 0.6240419163681288
 0.6237457440545094 0.6240419163681288
 0.6161917173459973 0.6240419163681288
 0.6240419163681288 0.6240419163681288
 0.6223338956580934 0.6240419163681288
 0.624210798299158 0.6240419163681288
 0.6238737129932151 0.6240419163681288
 0.6238434089226348 0.6240419163681288
 0.6239043984631283 0.6240419163681288
 0.6232297174442422 0.6240419163681288
 0.6241457030771004 0.6240419163681288
 0.6239154734133592 0.6240419163681288
 0.6189882242950356 0.6240419163681288
 0.6181751264617374 0.6240419163681288
 0.6120869787928014 0.6240419163681288
 0.6240419163681288 0.6240419163681288
 0.6231915956215617 0.6240419163681288
 0.6238511836678894 0.6240419163681288
 0.6217954981695634 0.6240419163681288
 0.6214785518692626 0.6240419163681288
 0.621152935294727 0.6240419163681288
 0.6243492956260679 0.6240419163681288
 0.6239625869768809 0.6240419163681288
 0.6238777751076106 0.6240419163681288
 0.6239664413673661 0.6240419163681288
 0.6240419163681288 0.6240419163681288
 0.6172324884170575 0.6240419163681288
 0.6239261350027651 0.6240419163681288
 0.6245232003067924 0.6240419163681288
 0.6240226301556676 0.6240419163681288
 0.6242265862856071 0.6240419163681288
 0.6214931559967078 0.6240419163681288
 0.6238220988005991 0.6240419163681288
 0.6241648104419163 0.6240419163681288
 0.6236073594401043 0.6240419163681288
 0.6235098571136765 0.6240419163681288
 0.6080193267566181 0.6240419163681288
 0.6188744878519564 0.6240419163681288
 0.6239739605442924 0.6240419163681288
 0.6194286769910202 0.6240419163681288
 0.6214303396573846 0.6240419163681288
 0.6239871618078209 0.6240419163681288
 0.6201850790055198 0.6240419163681288
 0.6239095314984235 0.6240419163681288
 0.624016683131031 0.6240419163681288
 0.6237521400813297 0.6240419163681288
 0.6240379550764987 0.6240419163681288
 0.6228818780330286 0.6240419163681288
 0.6208119370628064 0.6240419163681288
 0.6214327816384533 0.6240419163681288
 0.6153970380883087 0.6240419163681288
 0.6204179980587771 0.6240419163681288
 0.621936311745566 0.6240419163681288
 0.6229300823353719 0.6240419163681288
 0.6238906267013727 0.6240419163681288
 0.6240419163681288 0.6240419163681288
 0.6240419163681288 0.6240419163681288
 0.6231640955405432 0.6240419163681288
 0.6240206024242857 0.6240419163681288
 0.6189362476698611 0.6240419163681288
 0.6189339016958908 0.6240419163681288
 0.623324378381 0.6240419163681288
 0.6160230983833392 0.6240419163681288
 0.6214987403179311 0.6240419163681288
 0.6146417059679237 0.6240419163681288
 0.6242970189215742 0.6240419163681288
 0.6187999422947005 0.6240419163681288
 0.624036876365933 0.6240419163681288
 0.6235452233040087 0.6240419163681288
 0.6233503115951747 0.6240419163681288
 0.6235059494690696 0.6240419163681288
 0.6240419163681288 0.6240419163681288
 0.6240419163681288 0.6240419163681288
 0.6222426779145783 0.6240419163681288
 0.6237842493482046 0.6240419163681288
 0.6234681384722759 0.6240419163681288
 0.6238726212099723 0.6240419163681288
 0.6149574408195846 0.6240419163681288
 0.6215103755211639 0.6240419163681288
 0.6218273426626674 0.6240419163681288
 0.6200156153860679 0.6240419163681288
 0.6231945458114397 0.6240419163681288
 0.6208073190144843 0.6240419163681288
 0.624177672810585 0.6240419163681288
 0.624004749736746 0.6240419163681288
 0.6240419163681288 0.6240419163681288
 0.6229029320760663 0.6240419163681288
 0.6203656635259494 0.6240419163681288
 0.6223345711407617 0.6240419163681288
 0.6239084920320694 0.6240419163681288
 0.6240419163681288 0.6240419163681288
 0.612574197379441 0.6240419163681288
 0.6222751819365701 0.6240419163681288
 0.624001562287179 0.6240419163681288
 0.6236235404822346 0.6240419163681288
 0.6228874024961107 0.6240419163681288
 0.6239961550402945 0.6240419163681288
 0.6240365390025163 0.6240419163681288
 0.6222069547855428 0.6240419163681288
 0.6222468232771886 0.6240419163681288
 0.6240134726973299 0.6240419163681288
 0.6226105653853004 0.6240419163681288
 0.6239050900797323 0.6240419163681288
 0.6243466847005315 0.6240419163681288
 0.6197056410345918 0.6240419163681288
 0.6239100409186858 0.6240419163681288
 0.6242940414051145 0.6240419163681288
 0.6220812311292809 0.6240419163681288
 0.621726536548885 0.6240419163681288
 0.6240419163681288 0.6240419163681288
 0.6238675876861134 0.6240419163681288
 0.6177184770055666 0.6240419163681288
 0.6240419163681288 0.6240419163681288
 0.6241712383477138 0.6240419163681288
 0.6240968494281287 0.6240419163681288
 0.6214417046327207 0.6240419163681288
 0.6222551053466376 0.6240419163681288
 0.6198000838604699 0.6240419163681288
 0.6172480823261804 0.6240419163681288
 0.6233432416522521 0.6240419163681288
 0.6126176434432768 0.6240419163681288
 0.624057347977613 0.6240419163681288
 0.62073288628519 0.6240419163681288
 0.6240419163681288 0.6240419163681288
 0.6232359847255066 0.6240419163681288
 0.6181017593063454 0.6240419163681288
 0.6238509413866797 0.6240419163681288
 0.6240419163681288 0.6240419163681288
 0.6238355676490016 0.6240419163681288
 0.6220207326427137 0.6240419163681288
 0.6143254651518179 0.6240419163681288
 0.6212285411853222 0.6240419163681288
 0.6221397903663498 0.6240419163681288
 0.6240419163681288 0.6240419163681288
 0.6240419163681288 0.6240419163681288
 0.6205368970386012 0.6240419163681288
 0.6239908390368866 0.6240419163681288
 0.6234804025732545 0.6240419163681288
 0.6219782825352665 0.6240419163681288
 0.6190911837520273 0.6240419163681288
 0.6221373723129174 0.6240419163681288
 0.6220341509641433 0.6240419163681288
 0.6223624984075968 0.6240419163681288
 0.6198292608769709 0.6240419163681288
 0.6239347694267982 0.6240419163681288
 0.6241330210050495 0.6240419163681288
 0.6191552042218477 0.6240419163681288
 0.6240419163681288 0.6240419163681288
 0.624373609787285 0.6240419163681288
 0.62431096661494 0.6240419163681288
 0.6233652575216897 0.6240419163681288
 0.6240586275800879 0.6240419163681288
 0.6235419382650853 0.6240419163681288
 0.6235044142719214 0.6240419163681288
 0.6220853857083288 0.6240419163681288
 0.6147717356951744 0.6240419163681288
 0.6238025624619384 0.6240419163681288
 0.6145826448503879 0.6240419163681288
 0.6240419163681288 0.6240419163681288
 0.6097838489461861 0.6240419163681288
 0.6193334896633412 0.6240419163681288
 0.6202015324340107 0.6240419163681288
 0.6211087093408375 0.6240419163681288
 0.620473795616303 0.6240419163681288
 0.6185733758073966 0.6240419163681288
 0.6157957641433479 0.6240419163681288
 0.6228965369682485 0.6240419163681288
 0.6184714837543617 0.6240419163681288
 0.6224237874191295 0.6240419163681288
 0.6225570543739073 0.6240419163681288
 0.6214361659493243 0.6240419163681288
 0.618502277598447 0.6240419163681288
 0.6240419163681288 0.6240419163681288
 0.6202082109666461 0.6240419163681288
 0.6240419163681288 0.6240419163681288
 0.62269451427872 0.6240419163681288
 0.6232211739583935 0.6240419163681288
 0.6232968781933299 0.6240419163681288
 0.6195066681172277 0.6240419163681288
 0.6236746542959655 0.6240419163681288
 0.6240419163681288 0.6240419163681288
 0.6235603420649035 0.6240419163681288
 0.6224031918549997 0.6240419163681288
 0.6197740384966554 0.6240419163681288
 0.6240419163681288 0.6240419163681288
 0.6245986419962146 0.6240419163681288
 0.6240419163681288 0.6240419163681288
 0.623929858376754 0.6240419163681288
 0.6236244080465273 0.6240419163681288
 0.6229362319101172 0.6240419163681288
 0.6240319944146802 0.6240419163681288
 0.6239131358092452 0.6240419163681288
 0.6220552781136727 0.6240419163681288
 0.6240419163681288 0.6240419163681288
 0.6236516516701794 0.6240419163681288
 0.6223663490370924 0.6240419163681288
 0.6169082915772559 0.6240419163681288
 0.6180365175105567 0.6240419163681288
 0.6216488862568224 0.6240419163681288
 0.6243339011659904 0.6240419163681288
 0.6241552079089142 0.6240419163681288
 0.6225524284428909 0.6240419163681288
 0.6239710482045029 0.6240419163681288
 0.6240419163681288 0.6240419163681288
 0.6163020567567058 0.6240419163681288
 0.6240325328535148 0.6240419163681288
 0.6210262528371259 0.6240419163681288
 0.6240419163681288 0.6240419163681288
 0.6220557829315871 0.6240419163681288
 0.616849362350915 0.6240419163681288
 0.6221018799085705 0.6240419163681288
 0.6238944369277417 0.6240419163681288
 0.6223941462009354 0.6240419163681288
 0.6205652387755041 0.6240419163681288
 0.6237559063758322 0.6240419163681288
 0.6240419163681288 0.6240419163681288
 0.6240396038455682 0.6240419163681288
 0.6216915153923895 0.6240419163681288
 0.6238471441449766 0.6240419163681288
 0.6222259770387181 0.6240419163681288
 0.6236301571373239 0.6240419163681288
 0.6239936903962833 0.6240419163681288
 0.6238284191408837 0.6240419163681288
 0.6192427757683061 0.6240419163681288
 0.6231398612939893 0.6240419163681288
 0.6242012688546869 0.6240419163681288
 0.6201115893524203 0.6240419163681288
 0.6241923384176647 0.6240419163681288
 0.6238906157584966 0.6240419163681288
 0.6241563720171723 0.6240419163681288
 0.624039422587875 0.6240419163681288
 0.6239560021985986 0.6240419163681288
 0.6240419163681288 0.6240419163681288
 0.6236891818651344 0.6240419163681288
 0.6240419163681288 0.6240419163681288
 0.6238996042568186 0.6240419163681288
 0.6231556089498214 0.6240419163681288
 0.6231087949381381 0.6240419163681288
 0.6243457920819023 0.6240419163681288
 0.6240069140664003 0.6240419163681288
 0.6230230535525979 0.6240419163681288
 0.6204802884397339 0.6240419163681288
 0.6242044920304086 0.6240419163681288
 0.6240419163681288 0.6240419163681288
 0.6210329622812187 0.6240419163681288
 0.6211520680010185 0.6240419163681288
 0.6230704328534995 0.6240419163681288
 0.6240206999025524 0.6240419163681288
 0.6240082860542473 0.6240419163681288
 0.6246203807269677 0.6240419163681288
 0.6214639023321429 0.6240419163681288
 0.6240419163681288 0.6240419163681288
 0.6239910761556692 0.6240419163681288
 0.6238847523054203 0.6240419163681288
 0.6242135713129264 0.6240419163681288
 0.6240235997112542 0.6240419163681288
 0.6240419163681288 0.6240419163681288
 0.6196768685738296 0.6240419163681288
 0.6231645331546177 0.6240419163681288
 0.6237917829369271 0.6240419163681288
 0.6242355049499083 0.6240419163681288
 0.6239004315051693 0.6240419163681288
 0.6239902735777293 0.6240419163681288
 0.6239652084233013 0.6240419163681288
 0.6243293329500607 0.6240419163681288
 0.6240850422288086 0.6240419163681288
 0.6231150171368176 0.6240419163681288
 0.6206455777034103 0.6240419163681288
 0.6240419163681288 0.6240419163681288
 0.6240419163681288 0.6240419163681288
 0.6218414261509576 0.6240419163681288
 0.6240667746384628 0.6240419163681288
 0.6240419163681288 0.6240419163681288
 0.624089315478313 0.6240419163681288
 0.6224962738309298 0.6240419163681288
 0.6240258224879666 0.6240419163681288
 0.6206395213540081 0.6240419163681288
 0.6235948655196535 0.6240419163681288
 0.6240419163681288 0.6240419163681288
 0.6241876095383461 0.6240419163681288
 0.6233532215765905 0.6240419163681288
 0.6213539666258336 0.6240419163681288
 0.6203521487983092 0.6240419163681288
 0.6196812462040424 0.6240419163681288
 0.6240419163681288 0.6240419163681288
 0.6238326908693539 0.6240419163681288
 0.6237019278770666 0.6240419163681288
 0.6239648779464779 0.6240419163681288
 0.6236028746004014 0.6240419163681288
 0.6242289597515972 0.6240419163681288
 0.6240743973467346 0.6240419163681288
 0.6208305728480161 0.6240419163681288
 0.6243206818644988 0.6240419163681288
 0.622478679839418 0.6240419163681288
 0.6238833787582236 0.6240419163681288
 0.6240476230914562 0.6240419163681288
 0.6205815008730033 0.6240419163681288
 0.6197946755118856 0.6240419163681288
 0.6206592632294339 0.6240419163681288
 0.6225010215492237 0.6240419163681288
 0.6240419163681288 0.6240419163681288
 0.6239859965187414 0.6240419163681288
 0.6238114375400597 0.6240419163681288
 0.6243154490683297 0.6240419163681288
 0.6238179934570836 0.6240419163681288
 0.6240419163681288 0.6240419163681288
 0.6224062312485219 0.6240419163681288
 0.6238163727892506 0.6240419163681288
 0.6240419163681288 0.6240419163681288
 0.6240419163681288 0.6240419163681288
 0.6239762505760527 0.6240419163681288
 0.6243151365327599 0.6240419163681288
 0.6239784060723325 0.6240419163681288
 0.6240179719456604 0.6240419163681288
 0.6240156986232175 0.6240419163681288
 0.6223025080316226 0.6240419163681288
 0.6232735867922888 0.6240419163681288
 0.6208508695411612 0.6240419163681288
 0.6233426565320281 0.6240419163681288
 0.6240419163681288 0.6240419163681288
 0.6230858137382665 0.6240419163681288
 0.6235406436266144 0.6240419163681288
 0.624037478406859 0.6240419163681288
 0.6242133867199284 0.6240419163681288
 0.6218274843899563 0.6240419163681288
 0.6240221730073011 0.6240419163681288
 0.6178583494662254 0.6240419163681288
 0.6224364060078592 0.6240419163681288
 0.6228263509650843 0.6240419163681288
 0.6238798725252082 0.6240419163681288
 0.6240424275630706 0.6240419163681288
 0.6207667247687984 0.6240419163681288
 0.619535935870519 0.6240419163681288
 0.6212484264193575 0.6240419163681288
 0.6219639208442707 0.6240419163681288
 0.6240419163681288 0.6240419163681288
 0.6240419163681288 0.6240419163681288
 0.6218813349479748 0.6240419163681288
 0.6243025217055956 0.6240419163681288
 0.6220822537311963 0.6240419163681288
 0.6240407714498469 0.6240419163681288
 0.6233715900147008 0.6240419163681288
 0.6235469796742156 0.6240419163681288
 0.6239672826783937 0.6240419163681288
 0.6238178101151621 0.6240419163681288
 0.6189608700543452 0.6240419163681288
 0.6203484247344107 0.6240419163681288
 0.6240718073071099 0.6240419163681288
 0.623994850157586 0.6240419163681288
 0.6210659560835818 0.6240419163681288
 0.6239822758162573 0.6240419163681288
 0.619481459131226 0.6240419163681288
 0.6201751671472511 0.6240419163681288
 0.618996758033391 0.6240419163681288