# Created by Octave 4.0.0, Wed May 09 11:36:48 2018 CEST <olethros@olethros-OptiPlex-9010>
# name: results
# type: struct
# ndims: 2
 1 5
# length: 8
# name: options
# type: cell
# rows: 1
# columns: 5
# name: <cell-element>
# type: scalar struct
# ndims: 2
 1 1
# length: 8
# name: A
# type: scalar
2


# name: X
# type: scalar
8


# name: Y
# type: scalar
2


# name: Z
# type: scalar
2


# name: lambda
# type: scalar
0


# name: n_iter
# type: scalar
100


# name: horizon
# type: scalar
100


# name: n_samples
# type: scalar
1





# name: <cell-element>
# type: scalar struct
# ndims: 2
 1 1
# length: 8
# name: A
# type: scalar
2


# name: X
# type: scalar
8


# name: Y
# type: scalar
2


# name: Z
# type: scalar
2


# name: lambda
# type: scalar
0.25


# name: n_iter
# type: scalar
100


# name: horizon
# type: scalar
100


# name: n_samples
# type: scalar
1





# name: <cell-element>
# type: scalar struct
# ndims: 2
 1 1
# length: 8
# name: A
# type: scalar
2


# name: X
# type: scalar
8


# name: Y
# type: scalar
2


# name: Z
# type: scalar
2


# name: lambda
# type: scalar
0.5


# name: n_iter
# type: scalar
100


# name: horizon
# type: scalar
100


# name: n_samples
# type: scalar
1





# name: <cell-element>
# type: scalar struct
# ndims: 2
 1 1
# length: 8
# name: A
# type: scalar
2


# name: X
# type: scalar
8


# name: Y
# type: scalar
2


# name: Z
# type: scalar
2


# name: lambda
# type: scalar
0.75


# name: n_iter
# type: scalar
100


# name: horizon
# type: scalar
100


# name: n_samples
# type: scalar
1





# name: <cell-element>
# type: scalar struct
# ndims: 2
 1 1
# length: 8
# name: A
# type: scalar
2


# name: X
# type: scalar
8


# name: Y
# type: scalar
2


# name: Z
# type: scalar
2


# name: lambda
# type: scalar
1


# name: n_iter
# type: scalar
100


# name: horizon
# type: scalar
100


# name: n_samples
# type: scalar
1







# name: PU
# type: cell
# rows: 1
# columns: 5
# name: <cell-element>
# type: matrix
# rows: 100
# columns: 2
 0.5306527451269358 0.4497001428731675
 0.4861190140041736 0.4515669324954927
 0.5739700049192271 0.5376378880310533
 0.6376091847793077 0.5270015709785936
 0.434623305367915 0.4614361917484603
 0.4728584869581046 0.4899035997633291
 0.6340970240763676 0.5658651581842498
 0.594412297590964 0.598595873413598
 0.5493261147920656 0.6284566568971517
 0.6329802924100681 0.6067777524110286
 0.5042005023779343 0.6312199795342303
 0.656406422532258 0.6398302510019496
 0.4478611654891022 0.638313892630199
 0.6054179109626571 0.6317284329853119
 0.5801460503245045 0.6165364225910075
 0.6011205269175258 0.6493441007488047
 0.4187343848973926 0.6454336007361883
 0.4638461158250587 0.6374969361464662
 0.513454263308482 0.6442979976562594
 0.6517767632007515 0.6359444939716816
 0.4699158135348604 0.6415653573403612
 0.5351114921251524 0.6082794386570191
 0.5987933963313736 0.620767652569249
 0.4689055958975222 0.6251490511257711
 0.4792110676870295 0.6604286963037013
 0.6445387689729238 0.6363621939346598
 0.5112813142094216 0.6376834016199318
 0.6150232977568622 0.6209268090174589
 0.5103011735502254 0.6454954885380059
 0.4276241573420037 0.6531931913248336
 0.5440712679185171 0.6612304444529448
 0.5067367741770041 0.6358360530793312
 0.4741812394024606 0.6327749808250209
 0.505464791079918 0.6208529711595541
 0.5327406581155875 0.610244169512193
 0.5113913895054747 0.6335400918718437
 0.5564366305628916 0.6614417793196431
 0.5842611802680564 0.6597825139590375
 0.4763526211812661 0.6607579419921512
 0.5594129448830455 0.6604649895983518
 0.6638753253284393 0.6575663139064696
 0.5687032550004564 0.6608079291122171
 0.6600025198158244 0.6627911590789076
 0.4481396365209064 0.6615733558138732
 0.5160877231896184 0.6580991266720922
 0.5920061575735448 0.6593496781616273
 0.6386088226806678 0.6586587028528588
 0.5379083666778921 0.6618398156102803
 0.5981442416759983 0.6608932637017633
 0.4458753391021519 0.6567528923325928
 0.5037662163594649 0.6607376293795432
 0.6603471831652297 0.6572528589428109
 0.5915320137237836 0.6603848795654
 0.5856276399483064 0.6589535460644772
 0.6650047534777279 0.6589526512787717
 0.5850281783287121 0.6606386140960826
 0.4507204831287832 0.6601155370788823
 0.5618417155703744 0.662975442797639
 0.6159492079656587 0.662975442797639
 0.6583178724851406 0.662975442797639
 0.6372870049901674 0.6555680293980474
 0.5483535916592007 0.6623971457522312
 0.5388025613785852 0.662975442797639
 0.5304496704447705 0.662975442797639
 0.5931628987909254 0.6599510866494542
 0.6549760193623951 0.662975442797639
 0.6225153239451477 0.662975442797639
 0.6093947984456833 0.6570126524554982
 0.6069904985977386 0.6469136768705925
 0.6476151854134525 0.6533537707133693
 0.4488333559895309 0.6515040233637314
 0.6330037302964542 0.6459479142968222
 0.4189487091543141 0.6519994649451943
 0.6603471831652297 0.6527140568786316
 0.5221521871735159 0.6488059586752835
 0.5850281783287121 0.6549487922955491
 0.6585615292150387 0.640833286334505
 0.6093947984456833 0.6522209540072892
 0.6464189484510594 0.6611293670696102
 0.6474069262300203 0.6517716712194954
 0.6354187596290263 0.6515051310599818
 0.5726054294032942 0.6503119196331326
 0.6539609563439105 0.6513845186692555
 0.4755638625382736 0.6507982489915007
 0.4917484107486451 0.662975442797639
 0.6359805630482585 0.662975442797639
 0.6572591456546211 0.662975442797639
 0.5917150593212994 0.6585758217125682
 0.4970793353668777 0.662975442797639
 0.5939219705589627 0.662975442797639
 0.6412327321059531 0.6620156756660964
 0.4501920440693876 0.6627483109749657
 0.5578499368356949 0.6628363625529595
 0.5000095991974299 0.6557643754999206
 0.5961236956502904 0.6558504844416255
 0.504884330033151 0.662975442797639
 0.5158828140672539 0.662975442797639
 0.5046741497185553 0.662975442797639
 0.5340885353682558 0.6599273607792151
 0.6486394264192796 0.6618590005183094



# name: <cell-element>
# type: matrix
# rows: 100
# columns: 2
 0.5159028066891704 0.4703101738403818
 0.5402123115312174 0.5121966400214624
 0.5412980024085808 0.5871371951133402
 0.636280142675729 0.5610033458675692
 0.5840649718313531 0.5909195797753984
 0.5668943215183206 0.5777292866295247
 0.6008674676253972 0.5392573784248128
 0.5622537324187663 0.5991624448205592
 0.5569310896921744 0.5914624442797143
 0.5122788350908266 0.5975937354081731
 0.5818680043805804 0.4792101403552776
 0.5542186817862679 0.5153356141663016
 0.492619097165186 0.4904331922656371
 0.6410704450742993 0.510193805894389
 0.529380633261229 0.5386109731813865
 0.5856431707373103 0.6390511324756883
 0.5985407875671011 0.6214770905557281
 0.6014812755477483 0.6075715875074552
 0.5171239906850635 0.626005943984326
 0.6007341018825472 0.6234995818057778
 0.6565384941860665 0.6092955040533488
 0.5174792473438752 0.6148389212320461
 0.579785762572176 0.628260393953691
 0.6173713911491933 0.6258987827790615
 0.548507412816333 0.623011695731237
 0.5484048960760634 0.6302321537554886
 0.6177700592468049 0.629544723365427
 0.5115598395420007 0.6139276723257844
 0.4901005640452921 0.6241389602377424
 0.5111734614560717 0.6151157412851653
 0.5049086915966011 0.6451817235899007
 0.5864169762723825 0.630958955852006
 0.5499961518308254 0.6023309951430923
 0.4110846209650125 0.6106093609378975
 0.5746439879815448 0.6328688091908573
 0.6567801176799626 0.5982878380124844
 0.5736461369881879 0.6225797210734406
 0.5589790590660706 0.6179517199304615
 0.5505222772780362 0.6032728561255514
 0.5756754476682769 0.5811782751256253
 0.5776371532035433 0.6182900188062983
 0.4698811748798156 0.6552609323174483
 0.5713323851991032 0.6460551711793037
 0.5539914206490857 0.6438567717384218
 0.5448375174413838 0.6464115774573651
 0.5505330194115768 0.6505014545683592
 0.5668137216243987 0.6549757089153669
 0.5028016739777118 0.6449439750146331
 0.5127901068457068 0.6351703169087413
 0.5023857535118484 0.6425632819480587
 0.5895697993180867 0.6172263894013703
 0.4971503985466967 0.6416829594531275
 0.5534557459898615 0.6492564908998304
 0.5314519729035225 0.6403904152458699
 0.5014585648116076 0.6466327597092189
 0.5006804901269655 0.638822545291565
 0.5513088275513057 0.6457896850030816
 0.5783037073006863 0.6499612126991743
 0.5359217425456181 0.6308609346594602
 0.6145059653391298 0.6479566142034441
 0.6165992813345521 0.6370777066140006
 0.5344191466301503 0.6366611612742744
 0.5305123724065346 0.6441303273362363
 0.5642332172997053 0.6398990385522395
 0.6106669707834194 0.643670440830625
 0.5977309245105809 0.6405132395425043
 0.4389933644725 0.6365063626584566
 0.6030887111743384 0.631584312466673
 0.5791805660668229 0.6414229144199752
 0.5830344682022287 0.6490575748801529
 0.4874561502229228 0.6271306107000978
 0.6322998764611386 0.6401853125121511
 0.6179685369792699 0.6432104687024323
 0.538279974547396 0.6506091945401681
 0.410055989253601 0.6330596252179295
 0.6196782623060592 0.6430844632172482
 0.5884609213128352 0.6445058086820891
 0.5848915785013267 0.6235249689511561
 0.5930114616907802 0.6506601621975876
 0.5762479926435915 0.6214086401644009
 0.6284885113557408 0.6355480287983516
 0.5215781293524077 0.6254397336221625
 0.6049323675156905 0.6339112743352813
 0.6060908250006404 0.6165242473142226
 0.619911225507614 0.6344975815578972
 0.617294894829055 0.6357444222391522
 0.6330693768307476 0.627646646259945
 0.5440321310695224 0.6236907455263203
 0.6082860119576651 0.624246681793761
 0.6091031216334537 0.6349454537319671
 0.6039706651257046 0.6328532017523048
 0.518980044172044 0.6178868349899059
 0.5865495808585518 0.6052226403983364
 0.5851142756519698 0.6088228710375291
 0.4339480164894535 0.5959677283209835
 0.5805163797244119 0.6144026666632274
 0.5997372875859471 0.609942858046314
 0.5830519520646844 0.6091011593167622
 0.5827324102461656 0.6210464653400198
 0.5855242475235709 0.626051851170764



# name: <cell-element>
# type: matrix
# rows: 100
# columns: 2
 0.4480246900168731 0.474559054857894
 0.5161156517820884 0.4605996950553401
 0.4057094729483147 0.4450239421887948
 0.4807365242415428 0.4343691587494479
 0.5292187600543027 0.5143385306390835
 0.5842478449390073 0.4856446828033817
 0.3668596479459825 0.3983278307140853
 0.4166158767500655 0.4020786016639894
 0.491106709968017 0.4298666045888603
 0.3975587222462749 0.4106694825659302
 0.5413198830432321 0.4737152541181364
 0.4638971791965135 0.4712841471824497
 0.5063231699277535 0.5227824998607887
 0.3949413675688872 0.5357865184921369
 0.6197285348989454 0.534059143487712
 0.5329459846067228 0.5511893701863629
 0.5425916585626692 0.5496594275998864
 0.6398771578295703 0.5473160832685933
 0.4996249458044101 0.5785699094511694
 0.531805329518883 0.5707070885131148
 0.4362865563414801 0.557120633241699
 0.6041470315124701 0.5798046510194462
 0.42956359132201 0.5988736121370093
 0.4126278115912322 0.5910130301896083
 0.509101543911242 0.6174185654735673
 0.5859822266855971 0.5570565659888623
 0.4084490429615278 0.5643980596189766
 0.5748623711317228 0.5740669344230015
 0.5114713785625221 0.5944749057283912
 0.5092980576949352 0.6040883595764367
 0.3645309317485265 0.5856411656016276
 0.5254382233337938 0.588813027442074
 0.5127182317375828 0.5957392528013592
 0.5905193987089034 0.5957655576265731
 0.5025391927845895 0.5768754070502463
 0.5358784559067714 0.5885153664242364
 0.5097806971221575 0.5891077291656979
 0.4082572973283625 0.6009839393026122
 0.5684830833390953 0.6034481084793688
 0.5723121507769606 0.6087294428637454
 0.5266465481425343 0.5961896703321435
 0.588085496355632 0.6007791963710163
 0.5597922629316036 0.6081117987315626
 0.641530558761309 0.5997486028125506
 0.4108810254149912 0.5984872827071903
 0.607227002369119 0.5879123795661048
 0.5064228233084551 0.5917522808476933
 0.5816005381351484 0.5904613478466112
 0.5601254228261555 0.5900250119307914
 0.5107873126900518 0.5792811969639743
 0.5863168968767791 0.5845220976264571
 0.5822989277206134 0.5773968987247856
 0.5340117557781194 0.582515944229525
 0.579650068205109 0.5966784469326228
 0.5573259239109639 0.5834158978819126
 0.4925729689686042 0.5902233033074482
 0.5145167395244915 0.5961137599114184
 0.4715720780114419 0.5872398889837956
 0.4859499740370056 0.5902200862196847
 0.5665430183930443 0.5967625710700917
 0.5962422783712856 0.588776683687116
 0.5457722285452713 0.5891725358245927
 0.4926938606553083 0.5790035443041923
 0.5893564473096652 0.5912033575818957
 0.5533991677398218 0.5917150593212994
 0.5594996454517239 0.591247114093899
 0.5290408123275369 0.5915778835811045
 0.533995768797158 0.5922127123504106
 0.5955942374613552 0.597552079627975
 0.5506263736571894 0.5957408242767077
 0.3955639223334713 0.5935088442336524
 0.5851106576541704 0.5931674689863252
 0.5966690411569394 0.5943346915668685
 0.5174384731926934 0.5940466173364727
 0.5176014694583498 0.5962072856167511
 0.5108154019416941 0.5864823227900513
 0.5927471125641161 0.6008095790810624
 0.4065807921240775 0.6015918886292366
 0.416873045785643 0.5917150593212994
 0.4685794378914356 0.5924217725406069
 0.5178318017785478 0.5917150593212994
 0.3581123937156719 0.6030178344555952
 0.3822578245080023 0.5827628296190325
 0.4003952308152161 0.5997856851724885
 0.5458615824113611 0.5820997083674218
 0.6197177266113727 0.5898270226395941
 0.5122911301816843 0.5906039300471452
 0.4673250797423697 0.5903644464501352
 0.5012376169315547 0.5898982027945953
 0.4532233545427177 0.5986688960961829
 0.5851335785083089 0.5901696205598093
 0.492751932153161 0.5946426125648111
 0.5305928676075354 0.5860595234222824
 0.5659519179097668 0.5898994026934201
 0.5601515092211403 0.595772820343291
 0.3945820890373429 0.6021594491500915
 0.5286746610578242 0.5935428656469186
 0.4646994330731282 0.5888563127449292
 0.5450188545713369 0.5872417387054463
 0.4837681314025028 0.5875206692867613



# name: <cell-element>
# type: matrix
# rows: 100
# columns: 2
 0.4840015652629905 0.4883663044972053
 0.457468717720231 0.5457668836510593
 0.4829070353500214 0.5553874848547771
 0.41398386770968 0.5745578438435847
 0.4656312540927432 0.6146531346700987
 0.6485124372607413 0.5390688116712719
 0.4813345477547419 0.6393838703404207
 0.5647463211567756 0.5793002036840852
 0.3979641480907737 0.6339819334182611
 0.6108547711841364 0.6176212005052405
 0.5139844349209918 0.6316578398587623
 0.4858263594840001 0.6162110625623355
 0.4804216459643585 0.6204887529436882
 0.5923125891622538 0.6221735745708682
 0.6175896173464066 0.6079588952561585
 0.5116254872111259 0.6351173999589994
 0.4982063282986361 0.6192597489104554
 0.4453864157457598 0.6179858272649871
 0.42567911856528 0.6130523297807134
 0.5154495550293886 0.6173363302719088
 0.6475335382488052 0.6120574453353712
 0.5536545554391104 0.6022395313324928
 0.6087700787889059 0.6168386931903433
 0.6342840885075163 0.6229946101736421
 0.6014974575362235 0.6334974498247699
 0.615816317362147 0.6175084269975079
 0.5848833734721672 0.6096561928015501
 0.6507595068253302 0.6105607082978578
 0.4990554168380744 0.6401202401624703
 0.562038864552045 0.6375718961234919
 0.639612255995652 0.6391687478054534
 0.5916819540931356 0.6351153932309381
 0.3916320324831731 0.6373654523055802
 0.6345986991956322 0.5888886831281819
 0.5700162424321498 0.6277486001143436
 0.5593050882323695 0.6255730589676985
 0.6374745978645704 0.6475960353195567
 0.6215575960770424 0.6338743017289076
 0.46321068154093 0.6257300649566019
 0.6287741140723681 0.6210755054966319
 0.6471311283775919 0.6132654892084155
 0.5026218893964844 0.606769570204083
 0.6031560486300704 0.6237270716011321
 0.5289443380477405 0.5952145671572477
 0.557668933897441 0.6431778104916828
 0.5648228410233836 0.6277202037973062
 0.6130325383172122 0.6333738342489647
 0.5632976100014249 0.6163833487517941
 0.638114431699266 0.6129839890778664
 0.621396079396123 0.621623857887322
 0.5233810521710314 0.634245216647123
 0.5814760695482943 0.6287269004671588
 0.5718563134626056 0.6132755875590313
 0.6283639274118754 0.6005717267341373
 0.6281661958407446 0.6213931585116562
 0.5946812112739726 0.6402397318246004
 0.5474120853937254 0.6246374542249316
 0.5595684870046568 0.6350998692607254
 0.610746427001814 0.6283970590632355
 0.620363314842391 0.6503998041132671
 0.6142368272439676 0.6274768500348898
 0.5104171609935538 0.6506993749649639
 0.5779936535287689 0.6349104924718207
 0.6241693684557332 0.6209091821394003
 0.5584079063506019 0.6225263965459649
 0.4995141633715784 0.6311098002086414
 0.5743481759993196 0.6209030243345515
 0.6095849516450158 0.6226949154108055
 0.6119476316812907 0.6172431822543686
 0.5665430777989113 0.6264024657959627
 0.6241689736775596 0.601020258692382
 0.6023368900377335 0.6251441546645242
 0.6130166388998656 0.6143500508915868
 0.4444636219581469 0.6109221981300704
 0.6068271693901314 0.6295377674684595
 0.6167203199101782 0.6242586577450594
 0.6302350567960673 0.6197831680596619
 0.5926296951138467 0.6320584331719128
 0.6192717181504391 0.6214336395484938
 0.5685119641603246 0.5993086954433413
 0.5469387371835567 0.6159262454806249
 0.5625166350379246 0.6278868488838559
 0.6386403282728718 0.6116429188832868
 0.6461267984597331 0.6206158355241754
 0.5740796554398501 0.6159832713849123
 0.5980088621237031 0.6116575346247767
 0.558996753429812 0.640842105482553
 0.5545738381180043 0.6175093974340511
 0.6087705224742526 0.6219724649383036
 0.6431902594887953 0.6285665986033172
 0.5920042443969116 0.6232376589377447
 0.5434323690261597 0.6165393183584729
 0.563562100029245 0.6100887872311589
 0.5648743486577984 0.6201201519362799
 0.5614574774284147 0.6274956041961828
 0.5796294124653061 0.6372669414378604
 0.634663476657737 0.6358148853569164
 0.6490960637673049 0.6216462842541257
 0.595277143684722 0.6162669833959448
 0.5341745794832888 0.6238999522816295



# name: <cell-element>
# type: matrix
# rows: 100
# columns: 2
 0.4981609942080049 0.4838205265002781
 0.502253702087354 0.4637408982341451
 0.4999337655267262 0.4728495842805681
 0.5011244651909671 0.4736576699971225
 0.4870520756015401 0.4737328320906922
 0.4822219931668749 0.4737175015217499
 0.4840036182852976 0.4736450328432151
 0.4898802613987729 0.4735993262462656
 0.4882490508554559 0.4736021802703598
 0.4798951217049566 0.4735639378385527
 0.4821717393210899 0.4739198217663783
 0.4895315686133852 0.4742874678672242
 0.4914267471960473 0.4746515152911837
 0.4928115792146015 0.4750014325294155
 0.4909942374231328 0.4749633795006151
 0.4887941792862028 0.4749629672598644
 0.4915351208716237 0.474587610447171
 0.4905944573884833 0.4744895952542934
 0.4886003466271787 0.4744266597148034
 0.4885418288749881 0.4744753101648796
 0.4876653895845366 0.474410677196745
 0.4850889151277452 0.4743664621652329
 0.483913582527976 0.4743365869862699
 0.4836835018830235 0.4743258738727599
 0.4837554361501693 0.4743228509204012
 0.4831488279520202 0.4743001382023877
 0.4830099956007577 0.474300394631753
 0.4823895349584206 0.4742714029959439
 0.4821336759813908 0.474356844845864
 0.4822347589975939 0.474404315311364
 0.4818690265599766 0.4744083339167555
 0.4816890924653434 0.4743806894788042
 0.4815240689279702 0.4743817966366102
 0.4816744947052061 0.4743822811423051
 0.4815703324825165 0.4745104463391931
 0.4815786751275742 0.4746588993676375
 0.4814606297485815 0.4747086056118173
 0.4820644832877403 0.4747241819549159
 0.4821009526039748 0.474735304844953
 0.4820257410430809 0.4748007689144371
 0.4821696186787639 0.4747952309748684
 0.4816950168541977 0.4748074894147067
 0.4817570013939748 0.4747987547188396
 0.4817197068652795 0.4746768714376373
 0.4816131086764506 0.4746753386850189
 0.4819640211712062 0.4747910039447723
 0.4820780640460464 0.4749497777484622
 0.482018247448597 0.474944686286608
 0.4820201445670049 0.4750464216426889
 0.481995388075757 0.4750503064542685
 0.4818578035678842 0.4758210108145094
 0.4813037433204188 0.4760818816039755
 0.4814721967426619 0.4761508457582993
 0.4814543144270322 0.4761537409574346
 0.4814356810403425 0.4764712882161143
 0.4813989818082784 0.4764137801748762
 0.4813809120517324 0.4765487134131615
 0.4814098441317018 0.4765525281468224
 0.4813812535040976 0.476650605414369
 0.4814775168125708 0.4768183149592375
 0.4814838349838975 0.4767574482945495
 0.4815827032211376 0.4770721208077794
 0.4815627524612591 0.4768784692593794
 0.4817985302635266 0.4768859358960556
 0.4817866894166818 0.4768910815612902
 0.4817065262639886 0.4767317598019273
 0.4817336855988229 0.476754734392605
 0.4817751290293112 0.4767860207660652
 0.4817548507222698 0.4767858320878724
 0.4818277707753614 0.476807842234608
 0.4819272648038931 0.4768435717470724
 0.4818947958395156 0.4768696750665687
 0.4818160569391372 0.4770028122474765
 0.4817314935259744 0.4769866215785657
 0.4817316295610729 0.4769852893828144
 0.4817291603536329 0.4770295860878359
 0.481688224623216 0.4770970062627731
 0.481689461349107 0.4770618745394138
 0.4816641168848546 0.477075034158182
 0.481658550021416 0.4770878767455392
 0.4817182117205087 0.4770550783073657
 0.4816328879074947 0.4770675363577926
 0.4816802726172418 0.4770669239266103
 0.4816913853909293 0.4770933874436369
 0.4816260345456876 0.4771042521653232
 0.4816496914841261 0.4771045298946961
 0.4816790601720985 0.4771297570679796
 0.4816899845828494 0.477169862967833
 0.4815927889173502 0.4772107729322685
 0.4815944059764888 0.4771869488983885
 0.4815245339284164 0.4771336790724562
 0.4815601010084579 0.4771300321976121
 0.4815143925534923 0.4770796595699699
 0.4814306486088207 0.4770566813138825
 0.4813866483533279 0.4771672535840566
 0.481384056245295 0.4772167029270928
 0.4813779080953781 0.4771099450832853
 0.4813574779309542 0.4772019852000852
 0.4813957281029013 0.4772627022781511
 0.4817141371845295 0.4772726996503909





# name: PV
# type: cell
# rows: 1
# columns: 5
# name: <cell-element>
# type: matrix
# rows: 100
# columns: 2
 0.5306527451269358 0.4497001428731675
 0.4861190140041736 0.4515669324954927
 0.5739700049192271 0.5376378880310533
 0.6376091847793077 0.5270015709785936
 0.434623305367915 0.4614361917484603
 0.4728584869581046 0.4899035997633291
 0.6340970240763676 0.5658651581842498
 0.594412297590964 0.598595873413598
 0.5493261147920656 0.6284566568971517
 0.6329802924100681 0.6067777524110286
 0.5042005023779343 0.6312199795342303
 0.656406422532258 0.6398302510019496
 0.4478611654891022 0.638313892630199
 0.6054179109626571 0.6317284329853119
 0.5801460503245045 0.6165364225910075
 0.6011205269175258 0.6493441007488047
 0.4187343848973926 0.6454336007361883
 0.4638461158250587 0.6374969361464662
 0.513454263308482 0.6442979976562594
 0.6517767632007515 0.6359444939716816
 0.4699158135348604 0.6415653573403612
 0.5351114921251524 0.6082794386570191
 0.5987933963313736 0.620767652569249
 0.4689055958975222 0.6251490511257711
 0.4792110676870295 0.6604286963037013
 0.6445387689729238 0.6363621939346598
 0.5112813142094216 0.6376834016199318
 0.6150232977568622 0.6209268090174589
 0.5103011735502254 0.6454954885380059
 0.4276241573420037 0.6531931913248336
 0.5440712679185171 0.6612304444529448
 0.5067367741770041 0.6358360530793312
 0.4741812394024606 0.6327749808250209
 0.505464791079918 0.6208529711595541
 0.5327406581155875 0.610244169512193
 0.5113913895054747 0.6335400918718437
 0.5564366305628916 0.6614417793196431
 0.5842611802680564 0.6597825139590375
 0.4763526211812661 0.6607579419921512
 0.5594129448830455 0.6604649895983518
 0.6638753253284393 0.6575663139064696
 0.5687032550004564 0.6608079291122171
 0.6600025198158244 0.6627911590789076
 0.4481396365209064 0.6615733558138732
 0.5160877231896184 0.6580991266720922
 0.5920061575735448 0.6593496781616273
 0.6386088226806678 0.6586587028528588
 0.5379083666778921 0.6618398156102803
 0.5981442416759983 0.6608932637017633
 0.4458753391021519 0.6567528923325928
 0.5037662163594649 0.6607376293795432
 0.6603471831652297 0.6572528589428109
 0.5915320137237836 0.6603848795654
 0.5856276399483064 0.6589535460644772
 0.6650047534777279 0.6589526512787717
 0.5850281783287121 0.6606386140960826
 0.4507204831287832 0.6601155370788823
 0.5618417155703744 0.662975442797639
 0.6159492079656587 0.662975442797639
 0.6583178724851406 0.662975442797639
 0.6372870049901674 0.6555680293980474
 0.5483535916592007 0.6623971457522312
 0.5388025613785852 0.662975442797639
 0.5304496704447705 0.662975442797639
 0.5931628987909254 0.6599510866494542
 0.6549760193623951 0.662975442797639
 0.6225153239451477 0.662975442797639
 0.6093947984456833 0.6570126524554982
 0.6069904985977386 0.6469136768705925
 0.6476151854134525 0.6533537707133693
 0.4488333559895309 0.6515040233637314
 0.6330037302964542 0.6459479142968222
 0.4189487091543141 0.6519994649451943
 0.6603471831652297 0.6527140568786316
 0.5221521871735159 0.6488059586752835
 0.5850281783287121 0.6549487922955491
 0.6585615292150387 0.640833286334505
 0.6093947984456833 0.6522209540072892
 0.6464189484510594 0.6611293670696102
 0.6474069262300203 0.6517716712194954
 0.6354187596290263 0.6515051310599818
 0.5726054294032942 0.6503119196331326
 0.6539609563439105 0.6513845186692555
 0.4755638625382736 0.6507982489915007
 0.4917484107486451 0.662975442797639
 0.6359805630482585 0.662975442797639
 0.6572591456546211 0.662975442797639
 0.5917150593212994 0.6585758217125682
 0.4970793353668777 0.662975442797639
 0.5939219705589627 0.662975442797639
 0.6412327321059531 0.6620156756660964
 0.4501920440693876 0.6627483109749657
 0.5578499368356949 0.6628363625529595
 0.5000095991974299 0.6557643754999206
 0.5961236956502904 0.6558504844416255
 0.504884330033151 0.662975442797639
 0.5158828140672539 0.662975442797639
 0.5046741497185553 0.662975442797639
 0.5340885353682558 0.6599273607792151
 0.6486394264192796 0.6618590005183094



# name: <cell-element>
# type: matrix
# rows: 100
# columns: 2
 0.3686340668979056 0.3456271485692247
 0.3288560536591871 0.3054193699850596
 0.2164781660951501 0.4118363519217501
 0.3945348785852731 0.3855552987840603
 0.2843300104296381 0.4278380911731838
 0.3353636316736963 0.3806104087042474
 0.3954504252455056 0.3422404780294342
 0.4045083460131293 0.410083816623502
 0.219064476865744 0.3728891101117682
 0.3075674079210126 0.4002366127116782
 0.4225709444040299 0.2662077435234259
 0.3835649632820637 0.3105618004977918
 0.2770552449542993 0.1557382259900021
 0.4601736879843821 0.1696825507226722
 0.2408183460102007 0.2305863983561049
 0.4355957369535698 0.4498761344202463
 0.4458430520636913 0.3846896291549745
 0.2958523418628668 0.3584468891716283
 0.3203628955724331 0.393731410743266
 0.4368887278223764 0.3984288267169235
 0.4413754717667689 0.3868823191795492
 0.340925641321653 0.3848453128623133
 0.3578976822502961 0.4126548601253522
 0.3853523249439254 0.4348290743727774
 0.3842853027440738 0.4114238746626362
 0.3399769231616076 0.3840800234958942
 0.4247438993622686 0.416567442698831
 0.06880648692112923 0.4187206419454258
 0.04235290742332232 0.3812102065368251
 0.1848180242131187 0.3777718329902948
 0.1745188776412028 0.4254701647037581
 0.3007962024948317 0.4099563581757497
 0.1059461090405796 0.3780098931203122
 0.2126592968148553 0.402777118417557
 0.1647841866723531 0.39070903326587
 0.4472378335552695 0.3504440260123019
 0.1802911544296258 0.3976473525688859
 0.3321339878456629 0.3476996551947106
 0.09776992802708878 0.3518971109827064
 0.1487549275830035 0.3215551541498469
 0.2413185518208968 0.3884694191446989
 0.3420193276688159 0.420129427960066
 0.1376720952113741 0.4334783088337811
 0.2194850998962122 0.4324343641910403
 0.1296906108474977 0.4419080149818633
 0.1229287790123591 0.425390377467661
 0.239254904523204 0.4422880468672813
 0.06258867466825169 0.4399338466432992
 0.1778145010114831 0.4307958904749412
 0.04059821331176416 0.4310868174424858
 0.4267549570240984 0.4369504811158474
 0.0960913709496613 0.4523093443891118
 0.1991686229514032 0.4297406065583468
 0.2745799582713924 0.4632832677847395
 0.05500706330566407 0.4423301799712342
 0.06709862720430437 0.4423211191035531
 0.08554665039519094 0.4343264242702606
 0.2857667830936276 0.4216649775000003
 0.3121474045433935 0.4152879189044757
 0.4013785257249613 0.4388140833466951
 0.3951857903265219 0.4487344116138071
 0.2221493150369509 0.4498048762720004
 0.2648852220306969 0.4393674592358351
 0.2334344747528407 0.4468068663174636
 0.3972652513720479 0.4396705653535499
 0.3198085730861431 0.4330203390007616
 0.1074146254062671 0.4548256388047223
 0.4435892004664941 0.4346182286074092
 0.3188964156472178 0.428217396766475
 0.3551621742291801 0.4531280129494622
 0.04118140830977091 0.4311408393449626
 0.4116618783915856 0.4470059447129168
 0.4527037140488686 0.4311441382679032
 0.2350350390001716 0.4444338340335361
 0.157167358316456 0.4578736727954035
 0.4003058169297901 0.4359118164935843
 0.4204000507720882 0.4527399811686674
 0.3392395890680213 0.4349720829913553
 0.4073963372005925 0.4219539234275075
 0.3424232155535998 0.4287870414857477
 0.3578638133812634 0.461358749626945
 0.1420867217927281 0.4413310299936161
 0.430366925069976 0.4381665529243726
 0.3444047125065658 0.4472162421093702
 0.3936716211405619 0.4434587461786438
 0.4121706369257528 0.4630450243354687
 0.3940335075033868 0.4556130215358195
 0.1763776611774318 0.4542644648003791
 0.4353021818915321 0.44051318277059
 0.4117854787186363 0.451090651096382
 0.3120649958142702 0.4517478755868715
 0.1064724883800531 0.4289379034121079
 0.3314382869870822 0.4288690302083338
 0.4265773809841317 0.4508124341443945
 0.183827578628755 0.4384635000789769
 0.2981373850345681 0.4535091771222238
 0.4385699562109185 0.4489328700589781
 0.3825818114208828 0.450678438350549
 0.4219361867319025 0.4562190212829543
 0.4069716943856816 0.4553241070393411



# name: <cell-element>
# type: matrix
# rows: 100
# columns: 2
 0.1191230914753149 0.1690391376890402
 0.0943690181819378 0.1621239621900183
 0.1101654031069994 0.14370528744716
 0.05520640611212832 0.00821495930151625
 0.02932971309635163 0.1996326727166297
 0.04476920513277594 -0.02064467707551398
 0.1008010531905605 0.1321849057898653
 0.145432954874125 0.001997985726936991