# Created by Octave 4.0.0, Wed May 09 11:37:38 2018 CEST <olethros@olethros-OptiPlex-9010>
# name: results
# type: struct
# ndims: 2
 1 5
# length: 8
# name: options
# type: cell
# rows: 1
# columns: 5
# name: <cell-element>
# type: scalar struct
# ndims: 2
 1 1
# length: 8
# name: A
# type: scalar
2


# name: X
# type: scalar
8


# name: Y
# type: scalar
2


# name: Z
# type: scalar
2


# name: lambda
# type: scalar
0


# name: n_iter
# type: scalar
100


# name: horizon
# type: scalar
100


# name: n_samples
# type: scalar
1





# name: <cell-element>
# type: scalar struct
# ndims: 2
 1 1
# length: 8
# name: A
# type: scalar
2


# name: X
# type: scalar
8


# name: Y
# type: scalar
2


# name: Z
# type: scalar
2


# name: lambda
# type: scalar
0.25


# name: n_iter
# type: scalar
100


# name: horizon
# type: scalar
100


# name: n_samples
# type: scalar
1





# name: <cell-element>
# type: scalar struct
# ndims: 2
 1 1
# length: 8
# name: A
# type: scalar
2


# name: X
# type: scalar
8


# name: Y
# type: scalar
2


# name: Z
# type: scalar
2


# name: lambda
# type: scalar
0.5


# name: n_iter
# type: scalar
100


# name: horizon
# type: scalar
100


# name: n_samples
# type: scalar
1





# name: <cell-element>
# type: scalar struct
# ndims: 2
 1 1
# length: 8
# name: A
# type: scalar
2


# name: X
# type: scalar
8


# name: Y
# type: scalar
2


# name: Z
# type: scalar
2


# name: lambda
# type: scalar
0.75


# name: n_iter
# type: scalar
100


# name: horizon
# type: scalar
100


# name: n_samples
# type: scalar
1





# name: <cell-element>
# type: scalar struct
# ndims: 2
 1 1
# length: 8
# name: A
# type: scalar
2


# name: X
# type: scalar
8


# name: Y
# type: scalar
2


# name: Z
# type: scalar
2


# name: lambda
# type: scalar
1


# name: n_iter
# type: scalar
100


# name: horizon
# type: scalar
100


# name: n_samples
# type: scalar
1







# name: PU
# type: cell
# rows: 1
# columns: 5
# name: <cell-element>
# type: matrix
# rows: 100
# columns: 2
 0.5159278549846705 0.5471253712304436
 0.3885915270647666 0.581102024009466
 0.4514677484517036 0.5665856494197207
 0.5622078076590008 0.5716561001702188
 0.6291224698589973 0.504978018148033
 0.6123581446073066 0.5359660198806909
 0.5847478757759551 0.504089502151935
 0.558243954743552 0.5526541714949579
 0.4334642925605973 0.5093226431759496
 0.5441059975841466 0.5267135183193921
 0.4570079220997247 0.4650110003648538
 0.4876346900253009 0.4961300963917982
 0.5937221710715731 0.5008349887238139
 0.4723611766452893 0.4754518287316499
 0.3886091705656354 0.4662633978967868
 0.4614809238836317 0.4524917329868133
 0.5349173320637786 0.4861935545676485
 0.4619848587971497 0.447757809537879
 0.5883511353140294 0.4681433353276335
 0.5565714210502204 0.4786788728832627
 0.5144993704082355 0.4598536172411575
 0.339285111850211 0.4650213689715944
 0.4400423889846019 0.4753516473215237
 0.5048438333093951 0.4947282291616847
 0.6292241725311647 0.5095337465393469
 0.4984402972380174 0.5002042616760674
 0.3900046136845496 0.5003025807459722
 0.5095168864429611 0.4907643668335666
 0.530295688361169 0.522211325984669
 0.4421054748967133 0.5213440599207259
 0.5271392291378567 0.4954299385762791
 0.5476849179502458 0.4948691792219982
 0.5024274524509411 0.5305607062438159
 0.4215227621956724 0.5300440910397615
 0.5048786407455378 0.531623401799121
 0.6030938041314678 0.5168778212729825
 0.5074944382126565 0.5278079762430712
 0.5488038929489395 0.5412453310100858
 0.5365729890673855 0.5311825864253101
 0.602804704721458 0.5233261923997555
 0.5975975719108612 0.5251635290051605
 0.5169934743382717 0.5319902700565222
 0.5282440220683368 0.5283275153749079
 0.5869172146132965 0.5294048233221045
 0.4956647402274983 0.5410050178517918
 0.527618654216691 0.535714359126527
 0.528039047069527 0.525234932731891
 0.6127965611772863 0.5142859484105505
 0.5183294520340322 0.5148552801445954
 0.5570795418393197 0.514346257786219
 0.5067901541790356 0.5138233369121116
 0.6087655513134246 0.514249890699956
 0.5759843203950004 0.5144368561802016
 0.5824136029344412 0.5142480410824218
 0.5627434361137326 0.5187346107555524
 0.607911288324756 0.5145666595655455
 0.5875230994213846 0.514720123747192
 0.5284523272846287 0.5140276002843434
 0.5849087981959329 0.5144475917145468
 0.6147098005433536 0.5144069853661324
 0.6154851153937868 0.5149201242999868
 0.614924840032958 0.5236487304086188
 0.5549100109340689 0.5247331816244977
 0.6005923738171072 0.5408831917702912
 0.6125945906041791 0.5140614958395762
 0.5793729221453472 0.5372285572777731
 0.5780107205044908 0.537638696093228
 0.654924490353004 0.5273808481898443
 0.5752335429305391 0.5320810582360023
 0.5105574386120866 0.5362161281136926
 0.6461207480548594 0.5291334778293395
 0.6128213804090082 0.5214473635203734
 0.5241577876332587 0.5252762366947643
 0.6212521544328133 0.5287105265970928
 0.655873534861523 0.5314419636530742
 0.6474784082228908 0.5416508358769019
 0.6558303499715483 0.5262365381047649
 0.6650187353240116 0.5265377153524484
 0.6133259650562614 0.5448175813604392
 0.6553477741712173 0.5447679112517028
 0.5792644137977067 0.5429245181879667
 0.5373430782460075 0.544651190982155
 0.6486975840028726 0.5447669789780574
 0.6551655065650762 0.5448308785401821
 0.6458584032496439 0.544528539048829
 0.5455853565434103 0.5385367956438702
 0.6554253964227911 0.5432498340439165
 0.6340291530303046 0.5450337204790119
 0.6316381903905357 0.5451913244329092
 0.6255045105151272 0.5449106018316026
 0.6496769102150999 0.5446320622845202
 0.6256339113781586 0.5447954314178403
 0.6653577017115493 0.5445141079015099
 0.6247503611468206 0.5449432874114588
 0.6148095602192576 0.5444933834053003
 0.6554923833648567 0.5451605234150607
 0.5056160238004008 0.542313668948196
 0.6172224285942062 0.5449871129202652
 0.6421667757344023 0.545534911115398
 0.6434717800795071 0.540203665774196



# name: <cell-element>
# type: matrix
# rows: 100
# columns: 2
 0.5733168917196069 0.4620623779019856
 0.4787780700156735 0.4620623779019856
 0.4050831424241833 0.4833142550880112
 0.4089870657066426 0.4387381704967878
 0.5141493689898232 0.4700369850729577
 0.4009923837087128 0.5717208851589608
 0.6273202958304082 0.6284364601425901
 0.4619567601473843 0.546537015322841
 0.5122798085612064 0.5109744987408781
 0.4285249299045335 0.5228946436003364
 0.4778422764343999 0.4632299823625808
 0.4961234292317874 0.4944836829046902
 0.4526160110182963 0.5420132221515088
 0.5498473482998523 0.5494213883742355
 0.4900875827824983 0.5620562880743794
 0.529489540636263 0.5705949319042789
 0.4545023487442309 0.523186719345104
 0.5949873496860609 0.5669783455191294
 0.4363036093423087 0.502465240460642
 0.5875987634697672 0.5022155052329982
 0.4924336647992136 0.4985777283261183
 0.3874805254581831 0.4796864476483766
 0.5041094329986209 0.5410771627539154
 0.5436936195456433 0.5235555013030824
 0.3658201634863276 0.5326502637417277
 0.4350944544560468 0.5807368099350952
 0.5178957249096117 0.5445277162394175
 0.5679596813143004 0.5617653875051082
 0.5553887067175922 0.5442880561296481
 0.4375382906533954 0.5876404408375565
 0.3685777490855834 0.5776797181950762
 0.3812244447900763 0.4793458299247904
 0.5707301135533296 0.563791144769664
 0.4481303270043137 0.5886477905846961
 0.4465102250711867 0.5361141645206303
 0.4869425630310796 0.5701728397180048
 0.6135631991908166 0.5880091698587936
 0.5721390303117441 0.5819377893011836
 0.653168141942073 0.5576391651767717
 0.496591379481555 0.5436166749060483
 0.5987831030193159 0.5727017998557905
 0.5988037231851866 0.6312133393628193
 0.5249317701726619 0.6292353498053098
 0.5294000917569289 0.6424409962030709
 0.5452195770900514 0.6511023045509374
 0.3936330011145762 0.6492989844650303
 0.61773604476071 0.6358023987574816
 0.6573532939288328 0.6345391448332268
 0.5551147214430555 0.647219441805063
 0.5631931972344059 0.6287053026359892
 0.5742583768920612 0.6403383516249234
 0.5766496499147885 0.6419043096295959
 0.4976506037328435 0.6400835795966244
 0.5992334005509389 0.6452443945423953
 0.5830494634775414 0.6520562460747488
 0.5575687468130807 0.6434864229032308
 0.5031006444378868 0.6281340396107098
 0.6477212522157793 0.6307723655336364
 0.6392895901288074 0.634591716401768
 0.6366863151296471 0.6397783910924353
 0.6026827195364574 0.6379929531868451
 0.6186266261677081 0.6443393903063354
 0.6189237687782446 0.6454130621072254
 0.5909585075093212 0.6533686292534338
 0.5581301309000116 0.6384921205477104
 0.5724097332827002 0.6438195000874826
 0.6452390154753771 0.652134374822835
 0.6228597128801006 0.6396560064266549
 0.621660572952948 0.6390027209539881
 0.545311558133049 0.6417188874682312
 0.5626826398274977 0.6501387863865015
 0.6458584032496439 0.6415874268715608
 0.6252756184363587 0.6378621676450756
 0.6240743675207721 0.640428066330279
 0.5505939001873981 0.6553771195421219
 0.624914307078456 0.6558180843256721
 0.4776644522529651 0.6560535053849785
 0.5587780043425502 0.6553752534608457
 0.5563430938563927 0.6533799087265152
 0.6460848077182207 0.6551538684043055
 0.5896079123899528 0.6506622099938441
 0.6159811567911504 0.6553340184437781
 0.5617487847979715 0.6495974625388098
 0.4350292544509817 0.6555367716684878
 0.6181962190521875 0.6557714572891229
 0.6111429623680206 0.6454194806684513
 0.4827364017869775 0.6530877481782353
 0.6532048390615068 0.6555615435407482
 0.5384549922400534 0.6544476819747032
 0.6611862664024353 0.6505520728222934
 0.604661136418845 0.6554032659982317
 0.6118805104957634 0.6560419864678106
 0.5900330757310024 0.6333902600920102
 0.5571307999963835 0.651013681756645
 0.5864376563734112 0.6373210280321769
 0.6452669442549034 0.6217877671258076
 0.6141073811820718 0.6060112530207352
 0.615297904374991 0.6023991771746221
 0.5897370361228209 0.6102856346526317
 0.6454860498890673 0.6077520952046613



# name: <cell-element>
# type: matrix
# rows: 100
# columns: 2
 0.5329617989939572 0.512616666104532
 0.532454474383061 0.4251900412576082
 0.400332541855881 0.4104325859866072
 0.463373071047487 0.4631962314794591
 0.5194305447296979 0.5103211716401805
 0.5857175451880684 0.4602193970845552
 0.4318896862702803 0.4189646685254442
 0.6098994689349033 0.5118081816089726
 0.4995393965502711 0.4935996530416513
 0.5042837710120106 0.4616240717541569
 0.555102070980563 0.4785659875861447
 0.5890371363047018 0.459730258781577
 0.6031799018081607 0.4997898177594213
 0.5030162363577916 0.4767757844362683
 0.5959969519111781 0.4883654701513185
 0.5403813578351486 0.5080469251637658
 0.595390569419505 0.4938075748341182
 0.5339819928723811 0.4781882042857882
 0.6414075269737129 0.4915855073823285
 0.4582354411777624 0.5188296431693766
 0.6056516295919178 0.4548226855824402
 0.4952775833154296 0.5067106260876557
 0.5807916950558475 0.5217465131117121
 0.5679261770747355 0.4860743849546519
 0.4864737616157694 0.5305966675834527
 0.5885882530957122 0.538153428642774
 0.6224294230847254 0.5392667289121651
 0.6004652580321459 0.5442263986012152
 0.4702863542680013 0.5390406558281389
 0.5762407047422823 0.5369969158295471
 0.6707739536026522 0.5274177503235131
 0.5363628544421523 0.5408968053329062
 0.6081999207381491 0.5451654465672315
 0.6600823242892709 0.5416131035621141
 0.6412734394786812 0.5422209073896245
 0.483245801871565 0.5385720411087693
 0.5988131026631169 0.5432009876084936
 0.6478913552094336 0.5378612997588248
 0.6042107558870805 0.5400009901683278
 0.5904600185953263 0.5369152280692309
 0.6216043646136529 0.5343499610971736
 0.5272556021031798 0.5260012594262644
 0.6473227528111896 0.5405661786164677
 0.6549481554529401 0.5450289792748582
 0.6135631991908166 0.536065113758041
 0.6274138463374633 0.5453240137469528
 0.4710843251707199 0.5413946173317394
 0.6134206453970951 0.5369423364676948
 0.6432580146775742 0.5372685551266638
 0.6112266166781231 0.5450572180445126
 0.5755419226112082 0.5353653655281816
 0.6268962309366846 0.5446463318073871
 0.6090385437286164 0.5362430069788273
 0.555671831797067 0.5310467383227686
 0.6407103659337169 0.5330804253137649
 0.5901284400691497 0.5386304170365792
 0.650297683344055 0.5453745998396444
 0.6120784132786643 0.5445714546110356
 0.526044792192941 0.5451678469808445
 0.5257327315733702 0.5320065381014146
 0.6514890992987652 0.5354121709010911
 0.6189551982949759 0.5448492790491499
 0.5908852957174078 0.5446957183673524
 0.6334043321138726 0.5443713900462903
 0.6307633554515857 0.537449003214902
 0.5727725093658423 0.5432244481842481
 0.5206961432392976 0.5443174949041298
 0.586904246826574 0.5396095333763993
 0.6447920951511089 0.5387015919835569
 0.5959929158133519 0.5315417758760039
 0.6051693405598897 0.5446648171309769
 0.6010558791021587 0.5351240046009111
 0.578973793218125 0.545397132643666
 0.6076623172531932 0.5431243015163427
 0.6303670092957083 0.5320549802929594
 0.6286827348847339 0.5316850472225909
 0.5864286994952619 0.5418440725310187
 0.6248172712511864 0.5370402251070541
 0.6149055952814841 0.5447186406445417
 0.5729987145500957 0.5446712432944814
 0.5822865262838601 0.5400073685935176
 0.5585366177832854 0.5360122379847565
 0.6438619989334025 0.5344118787332006
 0.6081474389213011 0.5271065683696341
 0.5546450600645014 0.5445531677289266
 0.6328630837590103 0.538046404652947
 0.6633747455589672 0.540800771989985
 0.5856907286012848 0.5442546301361635
 0.526205590467259 0.5402450929046891
 0.6561494981931429 0.5283212953353594
 0.636311482701757 0.5448822875241979
 0.4996270865484078 0.5180521937819649
 0.6255247960094767 0.5221090724586677
 0.5995009921278399 0.5264228384600199
 0.5603886373993179 0.5383912587004558
 0.6182845340562274 0.544899993728355
 0.5646960174700855 0.5300358062146112
 0.6281967820414122 0.5292808767767307
 0.6477682083666958 0.5445340599556423
 0.6319986910334401 0.5411174224271689



# name: <cell-element>
# type: matrix
# rows: 100
# columns: 2
 0.5336150925342034 0.4802062122879268
 0.4967827907781097 0.4386256106104111
 0.4588805292747443 0.5325632942564766
 0.5390475389990165 0.5565379174160763
 0.5595343663344107 0.489999826611008
 0.5522438711441833 0.4677392586990637
 0.5713356946303244 0.5295376460257561
 0.5317381548428383 0.5412168016670412
 0.5319576651018522 0.5492610271171838
 0.5196176852926597 0.5405198299243118
 0.510886526903555 0.5219281620061746
 0.5001418328933905 0.5419173709992817
 0.5596297760175014 0.5567247708555251
 0.4500015289739299 0.524126246662685
 0.4254450217232233 0.5263193522454725
 0.4184642329372042 0.4992498541507659
 0.5310935402729449 0.4941031900549491
 0.5253391420132192 0.5085957688719058
 0.4376638394216358 0.4888574230492081
 0.4756176977258609 0.50068475636214
 0.4947430492577619 0.5088584392568168
 0.4985352021528204 0.5015277187309062
 0.4953975096556755 0.4968574626969552
 0.4569042199126908 0.5029610760745346
 0.4605507651270801 0.5073323156214687
 0.5170003860731489 0.4949103219793407
 0.4499486917862716 0.5085056955856235
 0.3496492116111247 0.5104438845855412
 0.4202288524058514 0.5000370916408156
 0.4190445402946169 0.5017090527273653
 0.4898759287766998 0.4930562566269935
 0.4382718150439469 0.5275879429653978
 0.5329478725935056 0.5251913209187645
 0.5576557519617413 0.5346898970294177
 0.5589561521736125 0.5308365262028329
 0.4391268197244448 0.5038152534416355
 0.5692607173815843 0.5415840275089854
 0.5000823825973276 0.5563177457182777
 0.4856772463549601 0.5534632994888967
 0.510453824369978 0.5561350208896741
 0.4452522328104589 0.5682374781656744
 0.4254955470819529 0.5118240456523204
 0.5080237219884529 0.5727337617680704
 0.5397845648978701 0.5522152444787507
 0.3743776201087883 0.5446584729171341
 0.5334905389560668 0.5288698904890846
 0.4849580773647567 0.5873288264754369
 0.5095992722553536 0.5367792097138524
 0.5451609535209877 0.4913289024628202
 0.5526275825269349 0.508354961534134
 0.5360104308166554 0.5278448420474454
 0.4970904229717901 0.5330517114539306
 0.4463938983153149 0.5253279924092024
 0.5269683594199165 0.5310911350542064
 0.4825686867974209 0.5548134168431282
 0.56321726566271 0.5109922246578991
 0.5199708471101472 0.5540262050004324
 0.5749848421095101 0.5514699366946434
 0.4844794869510117 0.5474753331974961
 0.5513330450779904 0.5361306001185359
 0.5751964670311868 0.5587528780173792
 0.5536796308431229 0.5386816331819241
 0.4700519368521094 0.5365067304984886
 0.4632436791132002 0.5347184256147552
 0.5861606273851443 0.5334656843615065
 0.4607057728119215 0.5198315926141442
 0.5282573646198873 0.5600456195026619
 0.5014051006523341 0.5408031378105488
 0.5688045820838129 0.5917852464221848
 0.5350020633228096 0.5500460086208689
 0.4529925212676957 0.5138706513701159
 0.5240590651580399 0.4962570433486317
 0.455957851542703 0.4943087529202255
 0.5746014248130953 0.5616173857974328
 0.5526885371430293 0.5550342830155335
 0.5179289075985154 0.5404222957908522
 0.5918162852598384 0.5572649524517228
 0.4688871486775775 0.5881284007869729
 0.5493489624883237 0.5761260445015512
 0.5389871385210573 0.5738153676100486
 0.5201371086973891 0.5772023510974328
 0.5911447183744402 0.5638257540106487
 0.5503875918511374 0.5874692757380203
 0.6010412240111739 0.5751053794943606
 0.5427583745772279 0.5943313079733522
 0.485597661326466 0.5740256640892648
 0.5362660142905288 0.5630969072737511
 0.5758969286645123 0.5792505322667546
 0.5632715437889294 0.5859718725443782
 0.5277403682093589 0.5769998866567077
 0.6016086271761839 0.5830027786310873
 0.5488208172176192 0.5579241426277983
 0.5926146422287712 0.5678032060962426
 0.544131732009731 0.5598301332501089
 0.5736990338119798 0.5693433059402194
 0.5817984635745123 0.5724275341058248
 0.5741258218844644 0.5929880047337582
 0.5244647632380188 0.59118286854276
 0.5821803062417027 0.5986704534100044
 0.5654987472500443 0.5880702260297722



# name: <cell-element>
# type: matrix
# rows: 100
# columns: 2
 0.5109345586260721 0.4740924112400194
 0.501993822397159 0.4679552845007511
 0.5015703625388503 0.4675611589828694
 0.5046827871779312 0.4674147870807439
 0.5099774279243658 0.4711036445849933
 0.5168287308868856 0.4725988271145258
 0.5154367242966553 0.4719546384700609
 0.5167030001298573 0.4683099998661148
 0.5179365348407643 0.4679604445009804
 0.5192839796140272 0.4681817119650086
 0.5177925516302307 0.4747131991710425
 0.5151384940070851 0.4759047586988795
 0.5133184752566746 0.4759071650229819
 0.5144997020439248 0.4759261130009916
 0.5147620404852478 0.4766300385773627
 0.5146031009413994 0.4767216018126497
 0.5150791952540611 0.4759354161877948
 0.5147574093436756 0.4759573540921954
 0.5140254850577716 0.4769270562796628
 0.513971277571472 0.4771828718928472
 0.5138002975172723 0.4798669412634944
 0.5139641267059565 0.4801173872616283
 0.514265491832482 0.4817276667037782
 0.5142309133867794 0.481723635339122
 0.5142939381781618 0.4818054941580265
 0.514321834383021 0.4810949076155787
 0.5139558544161562 0.4821024627431464
 0.5140504096431694 0.4816566211669601
 0.5140176187889801 0.48138885518972
 0.5140996707156034 0.4817670011585785
 0.5141316754219447 0.4820571962333104
 0.5141161618111224 0.4823049507521903
 0.5139906666459003 0.4816973225256928
 0.5139752073395167 0.4817845312104455
 0.5139862868797319 0.4802358372912941
 0.5139762551422303 0.4798183134133807
 0.5140210605455123 0.4797395279755015
 0.5140100127515912 0.4799120640224646
 0.5140163706396705 0.4808542334292422
 0.5139821939103892 0.4823162624746472
 0.5139654249680256 0.4822213280918894
 0.5139570242787236 0.4817170548334919
 0.5139570430043938 0.4833485543495391
 0.5139698748684359 0.4842832488316021
 0.5139661011817958 0.4856457380008156
 0.5139713585665778 0.4858789955709995
 0.5139578900537857 0.4840960840819589
 0.5139430111038632 0.4857049157450878
 0.5139523453066823 0.4863853387214123
 0.5139520945361139 0.4871712347097229
 0.5139532572802327 0.4877512104327816
 0.5139558075405941 0.4882310800022938
 0.5139562784226505 0.4886543563915942
 0.5139502979571791 0.4886902266235774
 0.5139471828300316 0.4895234492097805
 0.5139489611965209 0.4949427322667689
 0.5139458945637437 0.4965845737994017
 0.513946843557667 0.4955782540154443
 0.513945371113842 0.4949135551658415
 0.5139445413963351 0.4946784083011254
 0.5139419750577114 0.4940573405945868
 0.5139409595809844 0.4943474907229107
 0.5139410963202923 0.4943828485804226
 0.5139380764445316 0.4944710116189488
 0.5139387143613245 0.4958434575379067
 0.5139393634576075 0.5001927944557348
 0.513938922936893 0.5024627824429001
 0.5139387586405062 0.5020593798020859
 0.5139388479234998 0.5020214616716279
 0.5139385937240449 0.5018572490403996
 0.513938414620032 0.5022410412660984
 0.5139384435819775 0.5022531295142942
 0.5139385585006666 0.501371505756691
 0.5139386202486661 0.5025540864773211
 0.5139385598511951 0.503751461604208
 0.5139386084645635 0.5040561306548638
 0.5139386140462625 0.5039938485720905
 0.5139386989585926 0.5014078649930221
 0.5139386406405307 0.5011845768228682
 0.5139385603006608 0.5033112537026009
 0.5139385676354425 0.5039651942668903
 0.5139385098240337 0.5056155646050794
 0.5139385095305117 0.5048895821017559
 0.5139385720402309 0.5053535924411655
 0.5139385006958529 0.5058137566804805
 0.5139385041244415 0.5038345927918072
 0.5139384993497168 0.5030081196462555
 0.5139385476531046 0.5031096202714124
 0.5139385858294607 0.5031090717195306
 0.5139385678841618 0.5032655115199354
 0.513938546888968 0.5027925286808197
 0.5139385673726345 0.5029050826929425
 0.5139385520394271 0.504499525915197
 0.513938564712156 0.5062922520116525
 0.5139385702461657 0.507170367325091
 0.5139385809311274 0.5063816981699529
 0.5139385785352218 0.5059368748030046
 0.5139385859269912 0.507680519737107
 0.5139385815401415 0.5074819978023715
 0.5139385852588579 0.5060022172260844





# name: PV
# type: cell
# rows: 1
# columns: 5
# name: <cell-element>
# type: matrix
# rows: 100
# columns: 2
 0.5159278549846705 0.5471253712304436
 0.3885915270647666 0.581102024009466
 0.4514677484517036 0.5665856494197207
 0.5622078076590008 0.5716561001702188
 0.6291224698589973 0.504978018148033
 0.6123581446073066 0.5359660198806909
 0.5847478757759551 0.504089502151935
 0.558243954743552 0.5526541714949579
 0.4334642925605973 0.5093226431759496
 0.5441059975841466 0.5267135183193921
 0.4570079220997247 0.4650110003648538
 0.4876346900253009 0.4961300963917982
 0.5937221710715731 0.5008349887238139
 0.4723611766452893 0.4754518287316499
 0.3886091705656354 0.4662633978967868
 0.4614809238836317 0.4524917329868133
 0.5349173320637786 0.4861935545676485
 0.4619848587971497 0.447757809537879
 0.5883511353140294 0.4681433353276335
 0.5565714210502204 0.4786788728832627
 0.5144993704082355 0.4598536172411575
 0.339285111850211 0.4650213689715944
 0.4400423889846019 0.4753516473215237
 0.5048438333093951 0.4947282291616847
 0.6292241725311647 0.5095337465393469
 0.4984402972380174 0.5002042616760674
 0.3900046136845496 0.5003025807459722
 0.5095168864429611 0.4907643668335666
 0.530295688361169 0.522211325984669
 0.4421054748967133 0.5213440599207259
 0.5271392291378567 0.4954299385762791
 0.5476849179502458 0.4948691792219982
 0.5024274524509411 0.5305607062438159
 0.4215227621956724 0.5300440910397615
 0.5048786407455378 0.531623401799121
 0.6030938041314678 0.5168778212729825
 0.5074944382126565 0.5278079762430712
 0.5488038929489395 0.5412453310100858
 0.5365729890673855 0.5311825864253101
 0.602804704721458 0.5233261923997555
 0.5975975719108612 0.5251635290051605
 0.5169934743382717 0.5319902700565222
 0.5282440220683368 0.5283275153749079
 0.5869172146132965 0.5294048233221045
 0.4956647402274983 0.5410050178517918
 0.527618654216691 0.535714359126527
 0.528039047069527 0.525234932731891
 0.6127965611772863 0.5142859484105505
 0.5183294520340322 0.5148552801445954
 0.5570795418393197 0.514346257786219
 0.5067901541790356 0.5138233369121116
 0.6087655513134246 0.514249890699956
 0.5759843203950004 0.5144368561802016
 0.5824136029344412 0.5142480410824218
 0.5627434361137326 0.5187346107555524
 0.607911288324756 0.5145666595655455
 0.5875230994213846 0.514720123747192
 0.5284523272846287 0.5140276002843434
 0.5849087981959329 0.5144475917145468
 0.6147098005433536 0.5144069853661324
 0.6154851153937868 0.5149201242999868
 0.614924840032958 0.5236487304086188
 0.5549100109340689 0.5247331816244977
 0.6005923738171072 0.5408831917702912
 0.6125945906041791 0.5140614958395762
 0.5793729221453472 0.5372285572777731
 0.5780107205044908 0.537638696093228
 0.654924490353004 0.5273808481898443
 0.5752335429305391 0.5320810582360023
 0.5105574386120866 0.5362161281136926
 0.6461207480548594 0.5291334778293395
 0.6128213804090082 0.5214473635203734
 0.5241577876332587 0.5252762366947643
 0.6212521544328133 0.5287105265970928
 0.655873534861523 0.5314419636530742
 0.6474784082228908 0.5416508358769019
 0.6558303499715483 0.5262365381047649
 0.6650187353240116 0.5265377153524484
 0.6133259650562614 0.5448175813604392
 0.6553477741712173 0.5447679112517028
 0.5792644137977067 0.5429245181879667
 0.5373430782460075 0.544651190982155
 0.6486975840028726 0.5447669789780574
 0.6551655065650762 0.5448308785401821
 0.6458584032496439 0.544528539048829
 0.5455853565434103 0.5385367956438702
 0.6554253964227911 0.5432498340439165
 0.6340291530303046 0.5450337204790119
 0.6316381903905357 0.5451913244329092
 0.6255045105151272 0.5449106018316026
 0.6496769102150999 0.5446320622845202
 0.6256339113781586 0.5447954314178403
 0.6653577017115493 0.5445141079015099
 0.6247503611468206 0.5449432874114588
 0.6148095602192576 0.5444933834053003
 0.6554923833648567 0.5451605234150607
 0.5056160238004008 0.542313668948196
 0.6172224285942062 0.5449871129202652
 0.6421667757344023 0.545534911115398
 0.6434717800795071 0.540203665774196



# name: <cell-element>
# type: matrix
# rows: 100
# columns: 2
 0.3752627689234962 0.2067256529750736
 0.3481071649075581 0.2067256529750736
 0.06895050714458903 0.2078934225805948
 0.2452885777169389 0.2927656643551672
 0.3053899329262531 0.3126018180430627
 0.2508216305642301 0.4109217897617186
 0.4548527856703443 0.4315115604663418
 0.2123958701609704 0.3676692617632501
 0.3651791765566938 0.279637773009901
 0.2843868814121723 0.2955615408457973
 0.2202555582381704 0.2483175186541927
 0.2419673909905524 0.2287997428354694
 0.2652788390643191 0.3161091387670699
 0.2590623678796751 0.3284132817964163
 0.1759063968655828 0.3011733601766262
 0.3326973715441501 0.3141873296087437
 0.3369760800098078 0.3243198806387222
 0.4256284555056615 0.2779833733868906
 0.04496487968607688 0.2039927613336269
 0.2235453196675528 0.3126179523192134
 0.327542553442113 0.2390901594019957
 0.1179215085423212 0.2693731332897383
 0.2648631919396883 0.3306713634518281
 0.2502027172291075 0.3243286898359751
 0.1687858203167485 0.3411631302080814
 0.2312645315102998 0.3662909621511646
 0.2679228402201067 0.3222483124501752
 0.2759319677057024 0.3476662782301169
 0.3848688011098047 0.2970430561909409
 0.2915863244769938 0.3708338976609611
 0.2088709556954153 0.3537434049419049
 0.1692995812764734 0.2507917093714408
 0.3214087102387483 0.3593423801740322
 0.2228327929451346 0.3805056594791824
 0.2704149681580394 0.3913554589134728
 0.3163787430817963 0.4010127382598291
 0.3086540166083984 0.381922834252677
 0.3026085972504984 0.3542325118778218
 0.4561918495348875 0.3753811188107858
 0.1031702825060615 0.3316509248734478
 0.3231314732029564 0.343876805806851
 0.3417568358918849 0.406917678878971
 0.3580098642227982 0.4102352204452338
 0.2927728982749783 0.4148323338900666
 0.2754593558275772 0.4330446910223241
 0.118015432853128 0.432366396329156
 0.3537622621509127 0.4188155704165136
 0.4332575102373233 0.3744625956987254
 0.3106768350610564 0.4332324186674824
 0.2715676744328001 0.366375914285032
 0.2945392698130939 0.4197078306325109
 0.2968352654291209 0.4193790098150187
 0.3605312303732825 0.4022678181256635
 0.3270951444106715 0.4196117061613173
 0.2956578853011481 0.4283619247908403
 0.2594872231858044 0.4085571853610545
 0.2897415152836892 0.3875092320509234
 0.4403539133615542 0.400739124972089
 0.4431358948837911 0.384737324612626
 0.4333076130686134 0.4249580696199434
 0.3422227410371634 0.3836810989010631
 0.3613487305038322 0.3921729264932778
 0.3704872101197237 0.4297247734121291
 0.3502858470493808 0.4480516536866231
 0.3837554304541334 0.3961954881239597
 0.2785769682544306 0.4263064320336576
 0.4497850011711348 0.4167239040699132
 0.4136527589157082 0.3920914595918068
 0.3824288149197078 0.4147179570976215
 0.2795787997173733 0.4132388570508485
 0.3462770633777761 0.442308534264529
 0.4379342192727336 0.442063311569962
 0.3932612980493306 0.3947614370319397
 0.4146535828685097 0.4183229137156025
 0.3853194052618473 0.4486048202538108
 0.4204656454692673 0.429517310209123
 0.2653595144697955 0.4193269231263689
 0.3273432092002277 0.4486855950603963
 0.3206763214222673 0.4535422771369468
 0.4500574969394586 0.4582684226423084
 0.332019552336404 0.4254817011314562
 0.3899669389948441 0.4504704854458237
 0.2190833031599092 0.4246887756105563
 0.2052132706606656 0.4416941514672249
 0.3780062624750841 0.4315355984300594
 0.3849215566526864 0.4444264008259746
 0.2523495947059049 0.4638283987175653
 0.3940954954939759 0.4228819792039248
 0.3463192393225754 0.4319480747587522
 0.3740213985557035 0.4321182374130309
 0.4272741484698588 0.4474730501845296
 0.4004594462632448 0.4198255285827399
 0.3087142970193728 0.4075230033890425
 0.3777068776993532 0.4637830939051414
 0.4031526880069167 0.3999821074755799
 0.4492506382266179 0.427362527610274
 0.4078384245700634 0.3959635774262497
 0.385060075867631 0.4139997619006676
 0.4144723120679629 0.3935806150678934
 0.4450584775300944 0.3987744190890069



# name: <cell-element>
# type: matrix
# rows: 100
# columns: 2
 0.1821245362773284 0.1762399822491024
 0.1553273136501166 0.145701531331402
 0.003990762961863237 0.1378348292989616
 0.178623567147886 0.1270693447793281
 -0.1784855437391121 0.1337781782881718
 0.2642973863674302 -0.09298491292682096
 -0.03591302236124858 -0.1669802781594671
 0.1134395150128948 0.1112383116750714