# Created by Octave 4.0.0, Wed May 09 11:37:00 2018 CEST <olethros@olethros-OptiPlex-9010>
# name: results
# type: struct
# ndims: 2
 1 5
# length: 8
# name: options
# type: cell
# rows: 1
# columns: 5
# name: <cell-element>
# type: scalar struct
# ndims: 2
 1 1
# length: 8
# name: A
# type: scalar
2


# name: X
# type: scalar
8


# name: Y
# type: scalar
2


# name: Z
# type: scalar
2


# name: lambda
# type: scalar
0


# name: n_iter
# type: scalar
100


# name: horizon
# type: scalar
100


# name: n_samples
# type: scalar
1





# name: <cell-element>
# type: scalar struct
# ndims: 2
 1 1
# length: 8
# name: A
# type: scalar
2


# name: X
# type: scalar
8


# name: Y
# type: scalar
2


# name: Z
# type: scalar
2


# name: lambda
# type: scalar
0.25


# name: n_iter
# type: scalar
100


# name: horizon
# type: scalar
100


# name: n_samples
# type: scalar
1





# name: <cell-element>
# type: scalar struct
# ndims: 2
 1 1
# length: 8
# name: A
# type: scalar
2


# name: X
# type: scalar
8


# name: Y
# type: scalar
2


# name: Z
# type: scalar
2


# name: lambda
# type: scalar
0.5


# name: n_iter
# type: scalar
100


# name: horizon
# type: scalar
100


# name: n_samples
# type: scalar
1





# name: <cell-element>
# type: scalar struct
# ndims: 2
 1 1
# length: 8
# name: A
# type: scalar
2


# name: X
# type: scalar
8


# name: Y
# type: scalar
2


# name: Z
# type: scalar
2


# name: lambda
# type: scalar
0.75


# name: n_iter
# type: scalar
100


# name: horizon
# type: scalar
100


# name: n_samples
# type: scalar
1





# name: <cell-element>
# type: scalar struct
# ndims: 2
 1 1
# length: 8
# name: A
# type: scalar
2


# name: X
# type: scalar
8


# name: Y
# type: scalar
2


# name: Z
# type: scalar
2


# name: lambda
# type: scalar
1


# name: n_iter
# type: scalar
100


# name: horizon
# type: scalar
100


# name: n_samples
# type: scalar
1







# name: PU
# type: cell
# rows: 1
# columns: 5
# name: <cell-element>
# type: matrix
# rows: 100
# columns: 2
 0.4893997894222716 0.4588488082557515
 0.4439762538917502 0.4658128270895213
 0.5618517394779505 0.489456505266481
 0.487928675499908 0.4989039179027169
 0.530588591104193 0.4669075710907817
 0.6140533245423569 0.5429783585050887
 0.5240761210589451 0.5641619862092536
 0.495922489299567 0.5148617942688829
 0.5112921125748723 0.517795075293137
 0.5861833046349121 0.5643236506677016
 0.5319851795575302 0.4829549192756628
 0.5232041217448018 0.5161900418075999
 0.4549126648125464 0.4994519255418087
 0.5396625859800036 0.5110625041870857
 0.5686392916199119 0.4781005127834436
 0.4702079334524105 0.4906936711287018
 0.5513314385752182 0.4524698688367476
 0.5999741653182733 0.5678758228204031
 0.6020344280635495 0.5006602497999246
 0.5133708419363568 0.5027029982005479
 0.5489319241323843 0.4914942226572637
 0.5717194986660104 0.4913225623100346
 0.5440350375646859 0.5179267285735618
 0.6233635729380378 0.516373880331652
 0.5766068690795785 0.4716217728223108
 0.6571692542643717 0.4897491274727715
 0.5294044766525107 0.5549810157513161
 0.5861833046349121 0.5149490505658398
 0.62104404663283 0.5583466204203946
 0.533845792391924 0.5178758321788993
 0.5177408806835857 0.5186112903394002
 0.5900883992590491 0.5082927573980242
 0.5778535412146049 0.5153500304019936
 0.6233635729380378 0.5505424831423336
 0.6262394257176231 0.5211812200872711
 0.5717194986660104 0.5582182292951634
 0.5334063611810299 0.5392935452638473
 0.5371360700752315 0.5277065046616262
 0.5804869417221049 0.5903889795303613
 0.6095358954934835 0.565493266704576
 0.6271469033858781 0.5616018348956271
 0.6157148936983512 0.5645719845406088
 0.6414809044789278 0.5513716903471301
 0.5950542236553983 0.5406924351369156
 0.6479512309775239 0.5556952898891245
 0.5895383500583746 0.5922430786033179
 0.6245956514275344 0.6109789499623417
 0.602901879145827 0.6109789499623417
 0.6571692542643717 0.6109789499623417
 0.6537451426314589 0.6109789499623417
 0.6118640131002733 0.6109789499623417
 0.6526642362649195 0.6109789499623417
 0.5510636387397414 0.6109789499623417
 0.6109789499623417 0.6089090703039379
 0.6344632320050254 0.6109789499623417
 0.6571692542643717 0.6109789499623417
 0.5088999135710308 0.6109789499623417
 0.6571692542643717 0.6109789499623417
 0.6007637274522235 0.6109789499623417
 0.5816700743190237 0.6109789499623417
 0.6087687208197614 0.6109789499623417
 0.6055251799923442 0.6109789499623417
 0.5643779806605811 0.6109789499623417
 0.5850954356859486 0.6109789499623417
 0.5935047026038223 0.6109789499623417
 0.6364550085390928 0.6109789499623417
 0.5867932508564118 0.6109789499623417
 0.612932080025941 0.604898279422651
 0.6150733361231215 0.6109789499623417
 0.6336246960857435 0.6109789499623417
 0.6557844839725371 0.6109789499623417
 0.6418245631488988 0.6100881310620736
 0.5554881353629124 0.60356584638498
 0.586647401691382 0.6095351231581374
 0.62240699565137 0.6109789499623417
 0.6011340076659744 0.5919064599339602
 0.611520246233245 0.5943581619174254
 0.6262394257176231 0.6032126252192982
 0.6319499905396406 0.6105680263593207
 0.6567600688763404 0.5838973779977934
 0.6296153273439631 0.5859403304400053
 0.6530797764049598 0.5905655336686122
 0.621734407718171 0.5902647042370628
 0.6319499905396406 0.5889175187311508
 0.6364550085390928 0.5887143737052498
 0.6364550085390928 0.5918173817985081
 0.5978482212726233 0.5902647042370628
 0.6278685909374899 0.5921654788430357
 0.6384941579389527 0.5973864212762861
 0.6571692542643717 0.5922915969735217
 0.6567397514884403 0.594488791359112
 0.6163603641925115 0.5858219685405373
 0.5531715805504229 0.588055129357846
 0.6319499905396406 0.5885607849124741
 0.6055251799923442 0.5980237178617742
 0.5960305089784705 0.5902647042370628
 0.6126900229647083 0.5921833797564409
 0.6271358468551673 0.5910045693500916
 0.6249449846458111 0.591577054428239
 0.6364550085390928 0.5902647042370628



# name: <cell-element>
# type: matrix
# rows: 100
# columns: 2
 0.5057868572053106 0.5282099061329883
 0.5277828609692674 0.4859737997785692
 0.6079480294852788 0.3949320669517521
 0.4351819271274798 0.4283151134782852
 0.4126755053122599 0.416863045570367
 0.4737596961454934 0.4361396595786206
 0.4720936303862667 0.4256390434427272
 0.508920312806764 0.443352921854784
 0.5816362053799067 0.4432903967276291
 0.5044296420724717 0.4609698561092928
 0.4340523075715579 0.4533248475704056
 0.4673658822819498 0.4559998234864918
 0.5560626555410568 0.4404638332667646
 0.3926734569340188 0.4411096747685768
 0.4238372863685876 0.4283121425050871
 0.4152452121410196 0.4510209365652675
 0.4020446495695782 0.4047937673903944
 0.4286282510814075 0.4442013735840185
 0.4096729767060936 0.423773560820586
 0.3959239326736517 0.4702326164290623
 0.6004444042295285 0.4630157715000091
 0.4987396890541676 0.475993927409337
 0.4596099203619501 0.4721237763438552
 0.5486965580954594 0.4467273452306283
 0.4344216043778177 0.4295594970077126
 0.437739620154751 0.4350872519651405
 0.3569461533011729 0.4188780998266955
 0.4416921219695062 0.4057272931500348
 0.398979838007108 0.398428859272606
 0.5590090831043734 0.4376091594225769
 0.4543530953436346 0.4533675173606592
 0.3962831101359908 0.4281380892216488
 0.5250102887877373 0.4290000711113616
 0.4619215974133225 0.4135142235138684
 0.3970405563177174 0.4130715795622667
 0.42210901123522 0.4353593952998654
 0.4690699245622105 0.4491176863994071
 0.5212191126059517 0.3821738269369756
 0.4478053326058343 0.4387256484205456
 0.5262094003695705 0.4194521736068704
 0.406549180494127 0.4104601280579903
 0.490797627515656 0.4511389070254614
 0.5467007530305871 0.4505106825927429
 0.4353565851451625 0.4195559778988026
 0.5184056158835586 0.4307292054121746
 0.4028484292687808 0.4395827123554241
 0.5096170299797613 0.4255163640795825
 0.5251291398727747 0.4308093082225172
 0.4783328749662543 0.4523426476003727
 0.5357773553902397 0.430382498584683
 0.4960835321273016 0.4457269900929268
 0.5602391302775026 0.4804664016912535
 0.4855198835006874 0.4583876519134592
 0.5160829738366979 0.4679025255161579
 0.4555376106797663 0.4214745604902271
 0.4271188639096274 0.4562039228029424
 0.4921299666394215 0.4667728449954525
 0.3974389069340072 0.4741418842851374
 0.4583371133889115 0.4074438768045467
 0.4654827808815753 0.3967751972374946
 0.4568640070483423 0.4097756463872578
 0.4709223730954473 0.4170849689149481
 0.5174230926749505 0.4138050062268564
 0.5607926630140911 0.4136610739670243
 0.5042559620614726 0.422863153402048
 0.4829109216558465 0.4085095399736919
 0.4098060780137734 0.4086194987705398
 0.5378168977908251 0.4188591260474589
 0.5223767546291885 0.4140273203028551
 0.5666894940045446 0.4027130852484059
 0.476032443897569 0.4321457839143937
 0.5726363506225866 0.4339150455292666
 0.5945602772875178 0.4195660050240428
 0.6384128336670412 0.4292172632806862
 0.5229753626712399 0.4238853316993583
 0.57042261545049 0.4220754571854624
 0.5142451787866887 0.4083670483322272
 0.557471485421873 0.4155118111440819
 0.5168744663741304 0.4097913968731345
 0.4575631914820431 0.4172253865732866
 0.5012051460519689 0.4143613455591925
 0.5444932115038653 0.4026616304276621
 0.5976379691257315 0.4256598180892358
 0.5310063759350862 0.3955970346567615
 0.5174667107287753 0.3981528223675219
 0.4595107059749501 0.3970468998163735
 0.5231293042554572 0.428096401381479
 0.5270925208279729 0.4074248244861428
 0.6309509876932913 0.4056597615535716
 0.4349787917699318 0.4145314321667411
 0.4196025951032283 0.4076562099750732
 0.6105057818986529 0.4165536308971033
 0.5752944783425653 0.4123941559883946
 0.5762035312507727 0.4084824093577162
 0.5983457331330433 0.4136204839940475
 0.5628036390371169 0.4189252281470889
 0.5053613567442727 0.404722319655182
 0.5973575093355887 0.4040618813895041
 0.6483225978044758 0.4059044207787265
 0.6129610513634787 0.4080142938199128



# name: <cell-element>
# type: matrix
# rows: 100
# columns: 2
 0.5635736110398937 0.4870486590475221
 0.4861869158977808 0.4974140831000228
 0.5767403029194494 0.5012028090315194
 0.4568856940636265 0.5246265059184793
 0.4455839452865824 0.45723217060715
 0.5218198326360962 0.4495691154369879
 0.5681441794815473 0.4713422861523991
 0.4281065544442422 0.4675135248865368
 0.4847999317591817 0.4222206141240832
 0.5246045267375958 0.525645193539944
 0.4934620682541208 0.5210020759689344
 0.3895111333381648 0.5034794690287989
 0.4565281123065109 0.5626205675181799
 0.5499036593962485 0.5033620955532376
 0.4733616953093409 0.5719252384464216
 0.5084199892146681 0.5158418593896754
 0.5236219956214712 0.5182506527642798
 0.5587654062181955 0.4931907197425865
 0.5949194639765205 0.4727732638963209
 0.5489641342267881 0.5548000403369522
 0.5977967686913956 0.5529487453156349
 0.4800297547375722 0.536661966008835
 0.5809418142805707 0.4956695902788124
 0.5626385938103259 0.5370184753788723
 0.5711375212681333 0.5225537468483407
 0.6056548483027178 0.5267727648569881
 0.5507056565776622 0.5183317525800668
 0.5493417408394303 0.5356398554674046
 0.5785429209471928 0.5351105658115787
 0.5188138273587282 0.5385697623697303
 0.5819198246216286 0.542946490008136
 0.5575373553350622 0.4962100391924498
 0.5137700203262343 0.5004380981196018
 0.4666570110673866 0.5426041587857424
 0.582834775258892 0.5379179404414962
 0.587617818187175 0.5518697063684572
 0.5586877587219814 0.5281498779467242
 0.5719394569092449 0.5450334323748176
 0.4725519213078582 0.5431942358591735
 0.5290710759540309 0.5227039307496122
 0.5393820266411737 0.5341086532698263
 0.5418448241891176 0.5442616742194939
 0.5308239906622039 0.5314571985976788
 0.5414648199861163 0.5837280175783446
 0.483788583675411 0.5331526468643691
 0.5269890004232054 0.5385082431511456
 0.5366239686666954 0.5492668893110938
 0.5808952217716712 0.5332321121625077
 0.5244347791531605 0.5536005230742858
 0.5073520853857848 0.5623415558275798
 0.5621220991721678 0.5557304740404408
 0.5750459793599498 0.5376524737079272
 0.5404889731309194 0.5509229679699534
 0.5907790055506881 0.5604443694935171
 0.5940201559889717 0.576387978636788
 0.5779765263842482 0.5651466160464101
 0.6204922798158439 0.5721234057429074
 0.5733383606719058 0.5747250405816402
 0.5474377406479193 0.565509121369696
 0.5515575429472704 0.5570933987803847
 0.5665827117859876 0.5677242377165456
 0.6007674364027069 0.5753002967610996
 0.5816041669178154 0.5702009705418427
 0.5714134749765241 0.5643167089562189
 0.574126495703297 0.5729784749707671
 0.5347942217464163 0.5627724020564424
 0.5891895509654512 0.5638398936897663
 0.5603885107388634 0.5626994900960356
 0.5434202039833199 0.5638398936897663
 0.5875463211192855 0.5631954199666842
 0.5974778995396748 0.5621667062408047
 0.5850954356859486 0.5624029475355966
 0.595876539710064 0.5638398936897663
 0.5577173318713596 0.5613957145825104
 0.5492641832747485 0.5609424837055439
 0.5999271449310297 0.5618689456918358
 0.589548636193592 0.5631110762619536
 0.5708063121068911 0.5630451616708293
 0.5892855201781189 0.5638398936897663
 0.5924004815398725 0.5625654550830822
 0.5643271775865076 0.5628419219468161
 0.6007876964858807 0.5633677556650207
 0.5856824794284128 0.5638398936897663
 0.5463981312431532 0.5626940837593264
 0.574815250053645 0.562430245546639
 0.5995813666431458 0.5637966348979837
 0.5898806323596706 0.5621229487359314
 0.593170760205735 0.5625511574605035
 0.5804894089395712 0.5618127793392583
 0.5774844195721398 0.5615093237224984
 0.5936341525225947 0.5594199960671358
 0.5724779040183141 0.5638398936897663
 0.5769659375838138 0.5604764505447466
 0.5925849166336656 0.5628898847451568
 0.5860483846798943 0.561087594717504
 0.5705494954932053 0.5616918448492734
 0.5820141938799215 0.5621960478702652
 0.593193486034054 0.5627187609756055
 0.6087175993567844 0.561208307764139
 0.5925886336490023 0.5624466362899763



# name: <cell-element>
# type: matrix
# rows: 100
# columns: 2
 0.4944943955998972 0.546374341723104
 0.3761748752307155 0.5706302109944734
 0.4729877185451715 0.6037917016599058
 0.5260286408254971 0.5430283694070269
 0.4969809078056144 0.5772891976192016
 0.3812318729850719 0.5950309175177713
 0.5535039149795907 0.5846116980116195
 0.5828795253978809 0.6091319415864219
 0.5847813678484898 0.6088930303629829
 0.6036310588932436 0.5688333343111504
 0.60448344840166 0.5683807195582506
 0.5797593763868063 0.6006380608108308
 0.599890218349175 0.5754435970494781
 0.5854496524138608 0.5683759728438229
 0.5686107843780449 0.6308763983337129
 0.5158509029861398 0.6423826998255848
 0.544343381401733 0.6322519915549203
 0.6217846717649621 0.6130353234634602
 0.6089521630090752 0.627738097486237
 0.6135529839112033 0.6322770614483544
 0.6182392267071672 0.615978108973545
 0.5979532547952702 0.6280267094321601
 0.580520996177278 0.6174527809289945
 0.5917656429893801 0.6281909957988105
 0.5708318191294066 0.6315545174798962
 0.6062590236967274 0.620572886781753
 0.6083016464871407 0.6253498114336582
 0.6209048674552161 0.6269053345500493
 0.6069965822868354 0.6340805182682907
 0.6010819950903004 0.6236710263427869
 0.6237631776325223 0.6297896745233456
 0.5483211063869493 0.6186917221841288
 0.5520561846887238 0.6370512177884189
 0.6287420405155435 0.6378143889955294
 0.6234662434639853 0.623724185438169
 0.6124673149936235 0.6293776011698189
 0.6334298834636127 0.6327926130558597
 0.592289531227047 0.6296894589543933
 0.6415637971804455 0.6273997279836232
 0.6503965973336363 0.6321049663215159
 0.598520404424367 0.6352389130237832
 0.6128658923743386 0.635089700944409
 0.5479657711217552 0.6342736327324892
 0.577603303123862 0.6271419954270037
 0.6339351025952369 0.6367405462508016
 0.6176665270408473 0.62004543785994
 0.6477604786341149 0.6197329321967933
 0.6171804994843569 0.6246218562947468
 0.5887208726401922 0.635497532171613
 0.6270510741449169 0.6292397593466887
 0.5969697365376141 0.6336409813745203
 0.5845110916489603 0.6335359671418628
 0.6349323225470904 0.6361287201397383
 0.6197162350491343 0.6343836231829389
 0.6459887136250724 0.637302475980057
 0.618452949492821 0.6325545651095796
 0.6101571308877628 0.6413328553745443
 0.6451155923793546 0.6387552271953489
 0.6216777987895938 0.6325527087987624
 0.6201626152576408 0.6341476594341355
 0.6263206539932471 0.6414614422167622
 0.6175328999168566 0.6368842541727318
 0.5852196066710351 0.6376020004807263
 0.6300882701346316 0.6362319161878505
 0.6344589470655795 0.638291246979245
 0.6512708289403766 0.6408503732998549
 0.6180949202848771 0.6379550678851685
 0.6171867832670439 0.6417312838863156
 0.6486078810477798 0.6455669385536167
 0.5804510316748401 0.643711646842416
 0.6377809996962004 0.6376410756361912
 0.625468905676182 0.6506746528675604
 0.6459085330835312 0.6419463418276685
 0.6507996259558804 0.6440113549135629
 0.6044685143343292 0.6498812339749327
 0.6491940753441428 0.6461692306977813
 0.6429859951396901 0.6513217531947506
 0.6184946565532397 0.6423764795934248
 0.6209637408100973 0.6510471104456386
 0.632843560824556 0.6274715380474707
 0.6321579486533178 0.6504298000680222
 0.6177762182305102 0.6363824139667364
 0.6161266836648096 0.6310961170524807
 0.6330965809068702 0.6297134331276406
 0.6434257904950309 0.6370201230212065
 0.6389607151797254 0.6428508086421613
 0.6118049408840021 0.647252302617653
 0.6446171047391618 0.6507189285697645
 0.6360231353834989 0.6460383271929278
 0.548493714019732 0.6350754488790866
 0.5653134658095547 0.6295761920440623
 0.62390675829112 0.6312306568975159
 0.6509132807666698 0.6328825030092422
 0.629699890377843 0.6367117685515296
 0.6516528624642413 0.6380838811752976
 0.6380640575035934 0.6390928192855845
 0.6198547206504536 0.6382268251328249
 0.5858188725043304 0.6369889269812432
 0.5876521233512697 0.6317224717540717
 0.6331299868138485 0.6263612397352145



# name: <cell-element>
# type: matrix
# rows: 100
# columns: 2
 0.4670574293207443 0.460191495265226
 0.459525544166645 0.460191495265226
 0.4626491471991788 0.460191495265226
 0.4656679195623915 0.4673805146054421
 0.4635826755694426 0.4663665303774997
 0.4663830755777275 0.4662535934739437
 0.4655256204176884 0.4930018166668482
 0.477057979338923 0.4852602990422066
 0.4744295808330193 0.4887139178230613
 0.4731551932791618 0.4880222457612668
 0.4738305778370629 0.4867477672260677
 0.4702687879094152 0.4857734861855466
 0.4686245793747126 0.4851046377398214
 0.4693474177307299 0.4875487436291661
 0.4747080909505911 0.4884549365869907
 0.4769861613731698 0.489615194534224
 0.4775869235161933 0.4899016668868984
 0.4831383716967894 0.4910372902860461
 0.4805038005668479 0.4900637224344408
 0.4813966965783873 0.4897291224202399
 0.4808008964153604 0.4904752413706417
 0.4803326592880928 0.4900487486874537
 0.4811417488359251 0.4898646470247586
 0.4802204627318952 0.4885648381345166
 0.4827038912272525 0.4918453306111447
 0.4819572996187395 0.492390121576592
 0.4824588469637616 0.4889263297929093
 0.4820574437111385 0.4876147469882448
 0.4827195132347646 0.4856732580138222
 0.4828131634228469 0.4853210372654292
 0.4826379799169299 0.4858611090069464
 0.4817696688370908 0.4861635129166597
 0.4825313775887115 0.4861760640993424
 0.482661799309977 0.4841120461804281
 0.4824079270104848 0.4831231947735199
 0.4826006039520513 0.4834866547818434
 0.4830933567404769 0.4835329832892963
 0.4832611513600731 0.4835223139936904
 0.4836284157550012 0.4835792870163386
 0.4830976372839981 0.4836236764997211
 0.4830652034012722 0.483677562050099
 0.4832164465341925 0.4836458927894535
 0.4833491533806359 0.483546938057259
 0.4832730858251377 0.4834609883667867
 0.483296501130162 0.4834794610931591
 0.4831957970785696 0.4834683910082025
 0.4832404326724747 0.4840074772526548
 0.4832124989206521 0.4840482725092667
 0.4832543280146239 0.4839877495330965
 0.4832625027527421 0.4840296417941757
 0.483204687234861 0.4839236204517868
 0.4834268095429244 0.4839556190605082
 0.4833307440970221 0.4839279128345033
 0.4832982528936195 0.4839032257710202
 0.4832826859120571 0.4835742107716302
 0.4834081386062894 0.4837274444112853
 0.4833853416562076 0.4837555756109246
 0.4833491655180884 0.48371440588248
 0.4833741779242123 0.4837372522814711
 0.4834183116988221 0.4837598501945266
 0.4834469375745102 0.4837376183854872
 0.4834255691437413 0.4837575192255599
 0.4833774056775295 0.4837506252198017
 0.4833823622193146 0.4838087822071496
 0.4834081433190985 0.483783681907527
 0.4834199395643506 0.4816041448420921
 0.4834235392238775 0.4816158595382315
 0.4834357517674031 0.4816639898511965
 0.4834575555629757 0.4814543908721222
 0.4834542711241473 0.4813004902951767
 0.4834348214303186 0.4816079881229497
 0.4834387509167842 0.4820410711104866
 0.4834367396487274 0.482047617799784
 0.4834483839251469 0.4818642240960556
 0.4834479868789836 0.4818855251245348
 0.4834481151997302 0.4820367400029271
 0.4834477651540318 0.4818024128414851
 0.4834449590363887 0.4818051296223376
 0.4834479145871585 0.4815788256259362
 0.4834517425424535 0.4815264362921798
 0.4834467184731207 0.4813484405996111
 0.4834395946187011 0.4812218409401664
 0.4834443907718767 0.4811814665951517
 0.4834367690124728 0.4813894839914354
 0.4834396263608645 0.4813305188381347
 0.4834389152010772 0.4813636665375983
 0.483442846841297 0.4815884125316656
 0.4834434566719277 0.4815879041294251
 0.4834501638980182 0.4814970264223488
 0.4834459396593753 0.4817921197298517
 0.4834444367177517 0.4818228940256734
 0.4834450825625896 0.4818053888906268
 0.4834393236205635 0.4818337115966435
 0.4834475716276249 0.4808961815802701
 0.4834495905118796 0.4809469257997986
 0.4834501309746308 0.480906660059732
 0.4834469448125088 0.4810917898726441
 0.4834417347049288 0.4810312667619026
 0.4834461490985047 0.4812023328616166
 0.4834485685468596 0.4812570829542471





# name: PV
# type: cell
# rows: 1
# columns: 5
# name: <cell-element>
# type: matrix
# rows: 100
# columns: 2
 0.4893997894222716 0.4588488082557515
 0.4439762538917502 0.4658128270895213
 0.5618517394779505 0.489456505266481
 0.487928675499908 0.4989039179027169
 0.530588591104193 0.4669075710907817
 0.6140533245423569 0.5429783585050887
 0.5240761210589451 0.5641619862092536
 0.495922489299567 0.5148617942688829
 0.5112921125748723 0.517795075293137
 0.5861833046349121 0.5643236506677016
 0.5319851795575302 0.4829549192756628
 0.5232041217448018 0.5161900418075999
 0.4549126648125464 0.4994519255418087
 0.5396625859800036 0.5110625041870857
 0.5686392916199119 0.4781005127834436
 0.4702079334524105 0.4906936711287018
 0.5513314385752182 0.4524698688367476
 0.5999741653182733 0.5678758228204031
 0.6020344280635495 0.5006602497999246
 0.5133708419363568 0.5027029982005479
 0.5489319241323843 0.4914942226572637
 0.5717194986660104 0.4913225623100346
 0.5440350375646859 0.5179267285735618
 0.6233635729380378 0.516373880331652
 0.5766068690795785 0.4716217728223108
 0.6571692542643717 0.4897491274727715
 0.5294044766525107 0.5549810157513161
 0.5861833046349121 0.5149490505658398
 0.62104404663283 0.5583466204203946
 0.533845792391924 0.5178758321788993
 0.5177408806835857 0.5186112903394002
 0.5900883992590491 0.5082927573980242
 0.5778535412146049 0.5153500304019936
 0.6233635729380378 0.5505424831423336
 0.6262394257176231 0.5211812200872711
 0.5717194986660104 0.5582182292951634
 0.5334063611810299 0.5392935452638473
 0.5371360700752315 0.5277065046616262
 0.5804869417221049 0.5903889795303613
 0.6095358954934835 0.565493266704576
 0.6271469033858781 0.5616018348956271
 0.6157148936983512 0.5645719845406088
 0.6414809044789278 0.5513716903471301
 0.5950542236553983 0.5406924351369156
 0.6479512309775239 0.5556952898891245
 0.5895383500583746 0.5922430786033179
 0.6245956514275344 0.6109789499623417
 0.602901879145827 0.6109789499623417
 0.6571692542643717 0.6109789499623417
 0.6537451426314589 0.6109789499623417
 0.6118640131002733 0.6109789499623417
 0.6526642362649195 0.6109789499623417
 0.5510636387397414 0.6109789499623417
 0.6109789499623417 0.6089090703039379
 0.6344632320050254 0.6109789499623417
 0.6571692542643717 0.6109789499623417
 0.5088999135710308 0.6109789499623417
 0.6571692542643717 0.6109789499623417
 0.6007637274522235 0.6109789499623417
 0.5816700743190237 0.6109789499623417
 0.6087687208197614 0.6109789499623417
 0.6055251799923442 0.6109789499623417
 0.5643779806605811 0.6109789499623417
 0.5850954356859486 0.6109789499623417
 0.5935047026038223 0.6109789499623417
 0.6364550085390928 0.6109789499623417
 0.5867932508564118 0.6109789499623417
 0.612932080025941 0.604898279422651
 0.6150733361231215 0.6109789499623417
 0.6336246960857435 0.6109789499623417
 0.6557844839725371 0.6109789499623417
 0.6418245631488988 0.6100881310620736
 0.5554881353629124 0.60356584638498
 0.586647401691382 0.6095351231581374
 0.62240699565137 0.6109789499623417
 0.6011340076659744 0.5919064599339602
 0.611520246233245 0.5943581619174254
 0.6262394257176231 0.6032126252192982
 0.6319499905396406 0.6105680263593207
 0.6567600688763404 0.5838973779977934
 0.6296153273439631 0.5859403304400053
 0.6530797764049598 0.5905655336686122
 0.621734407718171 0.5902647042370628
 0.6319499905396406 0.5889175187311508
 0.6364550085390928 0.5887143737052498
 0.6364550085390928 0.5918173817985081
 0.5978482212726233 0.5902647042370628
 0.6278685909374899 0.5921654788430357
 0.6384941579389527 0.5973864212762861
 0.6571692542643717 0.5922915969735217
 0.6567397514884403 0.594488791359112
 0.6163603641925115 0.5858219685405373
 0.5531715805504229 0.588055129357846
 0.6319499905396406 0.5885607849124741
 0.6055251799923442 0.5980237178617742
 0.5960305089784705 0.5902647042370628
 0.6126900229647083 0.5921833797564409
 0.6271358468551673 0.5910045693500916
 0.6249449846458111 0.591577054428239
 0.6364550085390928 0.5902647042370628



# name: <cell-element>
# type: matrix
# rows: 100
# columns: 2
 0.1892317723783312 0.3133847369410351
 0.24222371687291 0.2470639376675596
 0.2483065904658647 0.1446080892812041
 0.1313483252411419 0.1825244031617356
 0.1181811826295682 0.1691416863372868
 0.2909844224716908 0.2169856662651673
 0.2846335148131826 0.225570451128306
 0.2815180550570792 0.207019169097078
 0.2921032645270277 0.09846157244038511
 0.2256725306751176 0.1898559519181684
 0.1093945805475732 0.1517228813200227
 -0.01002001168547589 0.2334160116519799
 -0.01779370104615829 0.2174744787946262
 0.1847158154299182 0.1628967002354486
 0.2669765573584639 0.156684316431942
 0.2243557518933001 0.1979773621078288
 0.2363622434013944 0.1914047683549744
 0.3022128619849692 0.1902634989503432
 0.2809668433421392 0.1507469218181225
 0.1200484980793546 0.1593124230745281
 0.262238067435682 0.1587708044435922
 0.1028819638631803 0.1165765988917447
 0.1291291495852605 0.1394322512713497
 0.2899457892385686 0.09788067339240122
 0.1674614211538078 0.2647473413989962
 0.1859241136908617 0.2468791454286655
 0.08610249950732668 0.1238229515383855
 0.000524734588130682 0.136942895007531
 0.01268066304352689 0.1060525074785649
 0.1643671153040153 0.2138564264151328
 0.0005657220610930103 0.1064670098149721
 0.185035002210381 0.05903299055929567
 0.2752283905729426 0.1415382635184017
 0.2377466999355115 0.1293523681764708
 0.1173836031660923 0.1507465706265454
 0.1276076270719763 0.2501892576292465
 0.2230298383033713 0.2065936350385066
 0.3366547356807536 0.1259985399483028
 0.2000315190027948 0.0807196457943464
 0.3568889105382452 0.1790788144560068
 0.08760720116466775 0.1178981063075242
 0.1512329504340972 0.1950444377147802
 0.07420360250498209 0.1257745674627763
 0.2800696924261207 0.2504120417714115
 0.1649079996999433 0.1362608346608422
 0.2686646066407428 0.1038099170489257
 0.207922313775364 0.2171205146045726
 0.2734861015735685 0.06975850755207275
 0.2144838976620083 0.04624129898253043
 0.3404176746519376 0.1900689302250138
 0.06182921880314152 0.05533608342179569
 0.201486855175107 0.117661502637674
 0.1969622870087713 -0.0002281045457915298
 0.1011937700969634 0.1254532360702672
 0.165524301291187 0.07011906627901801
 0.2828044755416689 0.1242086215641674
 0.07791139449223394 0.1169892675912165
 0.2799491943173311 0.1607336171858298
 0.2407189972754381 0.09772656281146677
 0.2069381790079484 0.08219228116146216
 0.2715629020619461 0.1156557295585375
 0.2724024479914151 0.2109627369321532
 0.2054272413219529 0.2262109401554287
 0.0988198029974719 0.1449376604146339
 0.3136074920010412 0.1490306140637009
 0.2163349601587779 0.1387929308398969
 0.1287566130063674 0.1149866789644308
 0.2948298051715832 0.1182957756211396
 0.2501399767009447 0.1487724807677427
 0.124849611775205 0.02916093240539791
 0.3067096542676664 0.1866683032937301
 0.3343005821090972 0.18924411688567
 0.3096977338423962 0.1811397575251153
 0.3668222772588905 0.1902490195477131
 0.1826695997572292 0.1367654547415674
 0.3260104921107315 0.1166806599470623
 0.2866166016760396 0.1047543284701715
 0.3119684545865199 0.03713322843525318
 0.3161490316103914 0.09919155741103766
 0.2805354835743761 0.08671056479493974
 0.1259105703386085 0.1391817760449113
 0.08263868850479383 0.1311055070104579
 0.1941158983487232 0.1708052470898918
 0.2450947650763559 0.1700427571106284
 0.2491546267712023 0.0883405283667329
 0.2468018389362881 0.199302033592405
 0.250260801987935 0.1668483648498748
 0.2507578199069229 0.2429967985725887
 0.3005652673490031 0.2313816764339965
 0.186721911577703 0.2204752870367947
 0.2763102070906307 0.248924883805799
 0.2508616959332969 0.2220198002001367
 0.3204195913389608 0.2232291448369639
 0.2076534953224273 0.248153842731019
 0.209123160362324 0.2284317423719469
 0.08928515919514307 0.2149570414914521
 0.1599255571470674 0.2176028790332251
 0.3632407577476308 0.2167711120757332
 0.3287125611703811 0.2490448583594926
 0.3313029754444745 0.2406519307221636



# name: <cell-element>
# type: matrix
# rows: 100
# columns: 2
 -0.2045393915461975 0.05242309584716087
 0.02259602689936499 -0.03847008790141995
 0.1135037631803298 -0.1059691770127728
 -0.01020952113108775 -0.1908177263065067
 -0.1720625723802376 -0.2164147910732902
 0.07147726229755155 -0.2520710457142862
 -0.4156599633653537 -0.2011069642628973