# Created by Octave 4.0.0, Wed May 09 11:37:13 2018 CEST <olethros@olethros-OptiPlex-9010>
# name: results
# type: struct
# ndims: 2
 1 5
# length: 8
# name: options
# type: cell
# rows: 1
# columns: 5
# name: <cell-element>
# type: scalar struct
# ndims: 2
 1 1
# length: 8
# name: A
# type: scalar
2


# name: X
# type: scalar
8


# name: Y
# type: scalar
2


# name: Z
# type: scalar
2


# name: lambda
# type: scalar
0


# name: n_iter
# type: scalar
100


# name: horizon
# type: scalar
100


# name: n_samples
# type: scalar
1





# name: <cell-element>
# type: scalar struct
# ndims: 2
 1 1
# length: 8
# name: A
# type: scalar
2


# name: X
# type: scalar
8


# name: Y
# type: scalar
2


# name: Z
# type: scalar
2


# name: lambda
# type: scalar
0.25


# name: n_iter
# type: scalar
100


# name: horizon
# type: scalar
100


# name: n_samples
# type: scalar
1





# name: <cell-element>
# type: scalar struct
# ndims: 2
 1 1
# length: 8
# name: A
# type: scalar
2


# name: X
# type: scalar
8


# name: Y
# type: scalar
2


# name: Z
# type: scalar
2


# name: lambda
# type: scalar
0.5


# name: n_iter
# type: scalar
100


# name: horizon
# type: scalar
100


# name: n_samples
# type: scalar
1





# name: <cell-element>
# type: scalar struct
# ndims: 2
 1 1
# length: 8
# name: A
# type: scalar
2


# name: X
# type: scalar
8


# name: Y
# type: scalar
2


# name: Z
# type: scalar
2


# name: lambda
# type: scalar
0.75


# name: n_iter
# type: scalar
100


# name: horizon
# type: scalar
100


# name: n_samples
# type: scalar
1





# name: <cell-element>
# type: scalar struct
# ndims: 2
 1 1
# length: 8
# name: A
# type: scalar
2


# name: X
# type: scalar
8


# name: Y
# type: scalar
2


# name: Z
# type: scalar
2


# name: lambda
# type: scalar
1


# name: n_iter
# type: scalar
100


# name: horizon
# type: scalar
100


# name: n_samples
# type: scalar
1







# name: PU
# type: cell
# rows: 1
# columns: 5
# name: <cell-element>
# type: matrix
# rows: 100
# columns: 2
 0.3346995549365787 0.5681699885875812
 0.5796156852918879 0.5912595641736349
 0.6605462656390061 0.5137695969633701
 0.4545964483804684 0.5209253335378513
 0.5266129730824853 0.5456992291807672
 0.6374276865436307 0.5549830099996782
 0.5257652020944702 0.587382237956058
 0.5775569423024113 0.6374982622086557
 0.4414122772777467 0.5684940490325341
 0.6044537861116421 0.569329029023028
 0.4438515416477216 0.6020824882236741
 0.5662414089174405 0.6689288805278936
 0.6571229896269942 0.6341008948929288
 0.4697534182252617 0.6108665963858425
 0.4552879391278862 0.6142066435004206
 0.4144977303391332 0.55035778098928
 0.5633118556638347 0.5245677727931709
 0.6278523839320559 0.6471615878107809
 0.6363164093627232 0.6877462516795
 0.4610306994922859 0.6062040010181214
 0.5004249216988793 0.5502086787254142
 0.71483089992172 0.5416174021815118
 0.561671948400995 0.5878664926504488
 0.5183770065339769 0.6320554541829418
 0.5639273859905811 0.581761610682889
 0.6093645412214302 0.6120774278414771
 0.5580713828710938 0.6610119087803096
 0.5810779827218807 0.5828737594328679
 0.4983119868202993 0.573645792416637
 0.5950103827799426 0.669802675306539
 0.6709786625651023 0.5697168001614764
 0.4900625648446008 0.6366361372171168
 0.6121674809229963 0.5667102133821296
 0.5067999735659131 0.6296900693821202
 0.4918696780798811 0.6377988016535624
 0.6234589545021617 0.5932078446379566
 0.5267478983177328 0.5420139433508264
 0.6408239202625173 0.6790513288234016
 0.6106085753479205 0.6858362586277608
 0.5650183534266415 0.6187364367495151
 0.6514068912338086 0.604877079711331
 0.4610306994922859 0.6254531028766775
 0.5601803668002109 0.6370195390292411
 0.5206439969954458 0.6009059921383149
 0.5690984869984022 0.5882431084671579
 0.5271994141798196 0.6577995651134873
 0.5926632023034725 0.529042321802076
 0.6178666182693686 0.6025023425285017
 0.5378514150774354 0.5670469611449116
 0.5516965689329093 0.6179553806340152
 0.6193678379463484 0.688794393754561
 0.5580965341929897 0.5386799938490358
 0.6283675308884702 0.5977294065173792
 0.5872797759539083 0.6805581148827936
 0.5562171206811907 0.6209028961286366
 0.5404405174811441 0.5997821186023106
 0.6143669308966299 0.5474513241781379
 0.5171136798055103 0.6212434907599398
 0.6750187088400662 0.6350675360417487
 0.6319713973884069 0.6337162329972886
 0.604903319276037 0.5978853550923963
 0.4694947249229532 0.6068690158025206
 0.5799172036020077 0.6102442642633613
 0.5731582035663564 0.5921010237875329
 0.6662946200813439 0.6150980151430285
 0.6301524693503814 0.5609178926611528
 0.6348679527320509 0.5648961207772286
 0.5665057936705596 0.608700516275093
 0.6557474807190575 0.6561000149271058
 0.5453940935178875 0.6067244650836785
 0.5990545693846052 0.5789977624711401
 0.5698822226611694 0.5489759119170554
 0.627012529009879 0.5950645966234837
 0.6829579391798978 0.6968507728238754
 0.5696456766659892 0.6215590669055931
 0.6153461688577938 0.6425800885292173
 0.4610306994922859 0.6000183561364877
 0.5944022454305246 0.691227315359415
 0.606792264296027 0.5895857686887352
 0.4610306994922859 0.6692753635589058
 0.5406504686527123 0.5855751823353893
 0.6837358224769526 0.6434355160896217
 0.615571938036832 0.5800337081858329
 0.5452741894541339 0.5337804751675539
 0.6025579470565122 0.6840953220860616
 0.5240447569643309 0.6681598825514335
 0.5164015745586852 0.589984171034393
 0.4832088664679746 0.6234664572983944
 0.424020888224616 0.5499912780078094
 0.6024519028400751 0.6564812684203961
 0.682722093525112 0.5970666098734908
 0.5623802276982216 0.5538840034693228
 0.4948655025858417 0.6915684937956031
 0.6505966292524027 0.5737505777316819
 0.5155148403291845 0.6868042068691677
 0.7043926957721848 0.6174800265213286
 0.5137754220578727 0.5975509355272995
 0.497818827985648 0.6003487966940589
 0.579742798560075 0.5275215754202212
 0.5888299815853523 0.6357043233116513



# name: <cell-element>
# type: matrix
# rows: 100
# columns: 2
 0.5759444941732037 0.5725901007922863
 0.5086452563908711 0.5684852215293664
 0.5224241854904257 0.4629210156803157
 0.667341872511484 0.6157112587702216
 0.6849570309383655 0.4345506446163814
 0.6066335421627579 0.5455925870467595
 0.5990643418820403 0.4781931440507982
 0.4667904164943704 0.484214676481375
 0.498958436466836 0.5796524628317787
 0.455774812861639 0.4632633911121744
 0.6587757924121584 0.5843553844624414
 0.565375422802376 0.5791195841801579
 0.5132882880349712 0.5438999306070872
 0.4539315136571631 0.5554832814459379
 0.6872970645009105 0.597228127988095
 0.4352866981580706 0.5828102457676457
 0.529240824134766 0.5240719359994492
 0.6278352890675718 0.5922008451065006
 0.6182325668967433 0.6655827579386857
 0.6268349922270499 0.5919236804417655
 0.6187297363766316 0.5792172132397954
 0.6493126522660978 0.6291896745197264
 0.6352308399019783 0.5632295460283406
 0.6431588543624069 0.6114678685211554
 0.6811975439136954 0.6036631612635435
 0.6356030506922202 0.5375831959162909
 0.6752157152873161 0.5692754105415105
 0.6828076012072058 0.5723947254873631
 0.4661943290320174 0.570399618940522
 0.7242531439857455 0.5952965459725664
 0.6521603267501196 0.6638601940700521
 0.7006908865875238 0.6158507795110325
 0.6166209029452313 0.6301444794507478
 0.5986216117043763 0.5780459522529132
 0.6576638637429523 0.5755298155310266
 0.6976872587200017 0.49581849552515
 0.6452319115031816 0.6603791954513858
 0.6425190058417375 0.698231478476358
 0.6279446158596332 0.7287172519766359
 0.6532202235212634 0.7274002658125579
 0.7092878076775048 0.7287172519766359
 0.5671347300705813 0.7244630955412824
 0.6232521229048181 0.7287172519766359
 0.4759978187651134 0.7247486272904812
 0.6922519969830127 0.7284640617883965
 0.6620042376980894 0.7234522585864135
 0.6917447944359661 0.7169270421648398
 0.6216478959180204 0.7180414774830356
 0.7106612403346769 0.7277345047388525
 0.5273233465360858 0.7217059952223553
 0.690621733229848 0.7151896240283581
 0.7221926367333152 0.726071043433098
 0.5264747919068239 0.7287172519766359
 0.5821060819335364 0.6998595491491525
 0.5008351518807497 0.7195737637369429
 0.6586107812603879 0.7287172519766359
 0.7146228386959045 0.7249014642288548
 0.7182334057116291 0.7169852373182689
 0.6063773802476343 0.7086774794677116
 0.704373793140655 0.7219602776791231
 0.522318033383686 0.7287172519766359
 0.6996885704929959 0.7287172519766359
 0.5147574292889202 0.7052920259391168
 0.7254531263865248 0.7287172519766359
 0.5900172695448733 0.7024432156014845
 0.4800115437533583 0.7072216250225515
 0.4832937955331492 0.717076314227402
 0.6860942430776918 0.7287172519766359
 0.6964447543770299 0.7245862777489319
 0.7187081658198182 0.7050324254388404
 0.6302143548856617 0.7287172519766359
 0.532866886053226 0.7199797879901321
 0.5998403578186854 0.7260194932562677
 0.6846924761122982 0.7287172519766359
 0.6506195725875036 0.7047907479443788
 0.6948930990695944 0.7287172519766359
 0.6077428411347029 0.7028843601835578
 0.6336892822448909 0.7131029401635879
 0.6644644427709271 0.7065547338077968
 0.4058036650116205 0.7287172519766359
 0.6709037846702934 0.7053164437456815
 0.5320986587068351 0.7264397546794047
 0.5393830466164021 0.7054890119328677
 0.6850593585683596 0.7073415894909957
 0.4900625648446008 0.7287172519766359
 0.5849994937755332 0.7287172519766359
 0.6238741109559346 0.7212160770118446
 0.6957246810329522 0.7267473731510529
 0.4713359319736082 0.7132717972101424
 0.6447887368614126 0.7123657713576391
 0.5045314296382848 0.7243998368847283
 0.6403196348021506 0.7140251222986808
 0.64296533826986 0.719451415278005
 0.5977185737995744 0.7245339971523937
 0.5737708049597486 0.7287172519766359
 0.5859002800510317 0.7061422008657096
 0.6247882419222975 0.6957432171335617
 0.6050002941371501 0.7118169490561245
 0.44894050105846 0.7024984111013325
 0.6910028344455598 0.7164138932984149



# name: <cell-element>
# type: matrix
# rows: 100
# columns: 2
 0.5287220601454826 0.4448760527150578
 0.4277978623647561 0.5104663799031811
 0.4539511704271446 0.6363005036726118
 0.6030979848475942 0.6090919547841249
 0.3475967620086097 0.608526735600499
 0.5079690932582742 0.6187806054819861
 0.5806643891337923 0.6402260838332385
 0.5235616689196841 0.6337570945301263
 0.653435752493765 0.6735550265499838
 0.5795877352813135 0.6341691084689755
 0.6828526749410089 0.6442525451640491
 0.5684342931069304 0.6216448045361055
 0.5874177442754792 0.6123885666521014
 0.378682694093318 0.5972721004197343
 0.6006458038151041 0.5926651071568586
 0.6170195670518813 0.6154271362554812
 0.6220973264904244 0.6057737363584229
 0.6252415729838604 0.6198382076672834
 0.5733274915494525 0.6031481974560066
 0.476487088079304 0.54057750920039
 0.5551589292064213 0.5411801912069942
 0.6060341035210153 0.6208078051317356
 0.55595348581268 0.6297640249083744
 0.5842905513341744 0.5939208112320015
 0.5950038465262038 0.5677207983131455
 0.548123208800149 0.5950189105266646
 0.5958971701055372 0.5850266834462963
 0.6125871074437393 0.5971935440206011
 0.5561633185183298 0.6247760545519411
 0.5977228474006455 0.5609671230574426
 0.6082945944199243 0.5596138523342069
 0.6383580997127105 0.6038306630355249
 0.531995817817008 0.5782729963532214
 0.6431283836942965 0.5859994075327223
 0.5540389784856706 0.596122162400321
 0.5596044925295317 0.6112099198151345
 0.6495115662991342 0.5697893294841294
 0.6270686202187006 0.5564005989223605
 0.6731921858813539 0.5724287058220877
 0.5487605754133651 0.5593167161130499
 0.6758989983651881 0.5654164461550366
 0.5786608422741784 0.5680240646263115
 0.6166955254599352 0.5833298890845379
 0.5398921654346753 0.5759720559825177
 0.6443636484088315 0.6007512633667635
 0.5622800103999428 0.6264468484816422
 0.4776255463768364 0.6357951673929014
 0.5905602030767487 0.6083746813535994
 0.5735578313218974 0.6021108785401915
 0.6285174956384183 0.6216155340025189
 0.6073852565723377 0.6381013032327301
 0.6793414546940261 0.6036219764140391
 0.5544074706292138 0.630133219549923
 0.5644103773696632 0.6175850700901689
 0.6308817284019881 0.6126499111223807
 0.6213922954549103 0.6274617110264629
 0.6088523276696927 0.6321632272010864
 0.5936228835635216 0.6162496370799413
 0.6375810769146247 0.6376967224312418
 0.4567606631977315 0.6130496847883585
 0.6042782251681913 0.6365949724778819
 0.65231129939632 0.6341460243407439
 0.6222021306165801 0.6416276359895874
 0.6190395359384853 0.6443146041295704
 0.7041170730554446 0.6438995141208808
 0.6172515430414756 0.6429051003744422
 0.6465852319245069 0.6504108226434548
 0.6060362775061066 0.6431236600885424
 0.5479553909046337 0.646328193597707
 0.620577287395039 0.648350823688167
 0.6580588564113456 0.6427091535046567
 0.625607882384018 0.6479523281836739
 0.6657204397846684 0.6446861717585288
 0.6030950246493139 0.6453445995430389
 0.6982557637250133 0.648550943392548
 0.6258537131931735 0.6536434647894489
 0.5986481178526346 0.6436008624357652
 0.6302998478610391 0.6438683806353944
 0.5892374274299954 0.6449419825933843
 0.6005340811588838 0.6506054310042839
 0.6907504649013635 0.6422747044638368
 0.6637911055988533 0.6381825517401896
 0.657401290474922 0.6484848782104715
 0.6432996947405588 0.6472042014812813
 0.5637918570222046 0.6451447998388512
 0.6393858008330654 0.6485247739817417
 0.7017006759584625 0.658940452629968
 0.7284440596723464 0.6533920367334065
 0.6120086295831424 0.6594023470304293
 0.6888253113950281 0.6397248338931634
 0.6386328382433009 0.637737564179693
 0.6100418691818058 0.6493285728740559
 0.6726593689811663 0.645051868340393
 0.664345001512643 0.6492368635364754
 0.6622695848202294 0.6424190041552611
 0.6542179174646753 0.6404159142437578
 0.6883655142032871 0.642457432246649
 0.590273582301829 0.640680490963371
 0.7049128431945731 0.6361584076444478
 0.5762295571465506 0.6464174046621074



# name: <cell-element>
# type: matrix
# rows: 100
# columns: 2
 0.3955810747680502 0.4243698287870785
 0.4055059388863097 0.3616425362653607
 0.5291950556489399 0.3798176484227299
 0.3845808112502089 0.3725321278745734
 0.5081923558761515 0.3894047467830117
 0.4074059455791497 0.3698536845150982
 0.3695991046527941 0.3657453682241118
 0.4892131804537908 0.4717201211074086
 0.4554728210894014 0.5344087938868839
 0.4425161967448935 0.5393619209876813
 0.5769168422854397 0.4848296705837086
 0.5118727771338868 0.4853994327595883
 0.561089291930271 0.5642524264022403
 0.6067714353213871 0.5888817246172848
 0.6309238740231344 0.5619985959118483
 0.370977097333853 0.5598828032793106
 0.5908768010478936 0.5615291929944282
 0.5444440235805607 0.5751324819072159
 0.5292965093247708 0.5833176118405122
 0.5629890238547588 0.5729526317349074
 0.6138142728973077 0.4649634966768847
 0.6659042614587657 0.4695312637668247
 0.4804099360926328 0.5193682327576672
 0.6381567809117923 0.5578540249814887
 0.447739238427136 0.5016082185233766
 0.5480350870589619 0.5727497973297078
 0.5613889927389137 0.6138489669264
 0.6838567396660925 0.5955706758329987
 0.6306747227069195 0.6099603501897745
 0.6095867427898971 0.6122873743040986
 0.6423269243010397 0.6075712626327808
 0.5996138514672105 0.6140067797644436
 0.6083694786033216 0.5981720731053689
 0.6585347251590861 0.6010991184335031
 0.6374790583121507 0.6014785147349997
 0.6390359783047239 0.5706373882982445
 0.6189717782666793 0.623070713166831
 0.6480466050634022 0.6089523319217218
 0.5185959620512784 0.6259686181833511
 0.6457753163128357 0.6099189693637791
 0.6232092972616423 0.6014923850004288
 0.5112267339219446 0.5992920728147645
 0.6182916913359299 0.6432266630045184
 0.6015062626179997 0.617076512752596
 0.5341538642730786 0.6351272442369233
 0.6289883920741651 0.6168818945756299
 0.5991588448600794 0.6381066859743854
 0.5799881605699154 0.634561276732996
 0.6245485976450121 0.5730406987746048
 0.4656281065078304 0.6171353434536186
 0.6325612721789087 0.6294122583616077
 0.5909645604781604 0.6288124739927199
 0.6387815039882676 0.6204661902651543
 0.6470075464787448 0.6052835583316243
 0.5055035523165839 0.606078047598004
 0.653137761970885 0.6268096260029217
 0.5269160272803106 0.625893276886638
 0.6154248047300035 0.6209031870909921
 0.6137413394554212 0.6114127202986716
 0.6055226570118359 0.6123631477958384
 0.570334664795261 0.6150932137746118
 0.6572394299467177 0.616231247087568
 0.5019570249288708 0.6105660500471672
 0.6244923468768306 0.6286997022360326
 0.6835931637689834 0.6025959811399386
 0.4707514691867714 0.6112207419718667
 0.6298790541443743 0.6140450602057133
 0.6122535492200513 0.6086396516767743
 0.6247932544180627 0.6523062762037475
 0.6211576425880279 0.615990395334594
 0.6628122625863704 0.6158830029787387
 0.6157465277370818 0.6404386636555413
 0.6291352539222586 0.634058125732585
 0.6188409814528114 0.5851920471975897
 0.6238841536852846 0.5964661039722066
 0.5165035983945685 0.6040704420942894
 0.6372883309096905 0.6140343862507834
 0.5834586663441996 0.6308667035627623
 0.5428747484623009 0.6265948549608803
 0.6492373006472432 0.6068790849246728
 0.613821197277812 0.6191161862033203
 0.6765526697358416 0.6453051587357505
 0.5364382415735151 0.6096196558413375
 0.6210854135036759 0.5916997977711645
 0.6078310023351938 0.631192938233524
 0.5405200012813146 0.6053356572855579
 0.6598538465454347 0.5997743851577645
 0.5893880660066203 0.6262414435723466
 0.6092212690082601 0.6115006927625131
 0.6182654646807999 0.6270125672015673
 0.6323096072315822 0.6448311880418049
 0.6494385012721545 0.6097918823331711
 0.5976425606644746 0.6108229149759998
 0.5639438299698429 0.6437002126793159
 0.5445093243410126 0.6424012295666347
 0.6457817206143107 0.6102957164526625
 0.6362977616263247 0.6438300688570382
 0.6155842813768084 0.62224042120843
 0.681948782187899 0.6481538104563745
 0.6503815149008715 0.6411254010574697



# name: <cell-element>
# type: matrix
# rows: 100
# columns: 2
 0.4723881407370548 0.4872964996787256
 0.4745189688271145 0.4961857929683138
 0.4883972461570613 0.4962368220935462
 0.4897070968763341 0.4962626159097421
 0.4929294602878353 0.4964418005290362
 0.4935796409889203 0.4961915540932046
 0.4920041882392073 0.4956085194306832
 0.4922770975948224 0.4956863548803337
 0.4924413711335308 0.4957049550225772
 0.4929233133384382 0.4954244671825881
 0.4923484152862733 0.4957553477035652
 0.4928504839294922 0.4959685882078775
 0.493017035923678 0.5020663991382149
 0.493529439620178 0.5021176094337361
 0.4939557991872026 0.5022626836368133
 0.4936619268249126 0.5022803755831059
 0.4938775047344411 0.5035822594833723
 0.4937415750814611 0.5035035217382212
 0.4937552687270825 0.5034320497520012
 0.4935066162403469 0.5017016615534672
 0.4938153821421696 0.5016820060161594
 0.4939775604076301 0.504468067362872
 0.4936211643989423 0.5053926945814121
 0.4936402496437084 0.5045779266432399
 0.4935101843891047 0.5046087349793812
 0.4936660666167665 0.5045946418044269
 0.4935895313808064 0.5045998421531199
 0.4932090617096782 0.5045959614326876
 0.4927024244045471 0.5139846110328282
 0.4932531613159937 0.5124793389591313
 0.4926910293889523 0.5146304185796455
 0.4932129757123645 0.5132475034171147
 0.4929548079290658 0.5132260143303364
 0.4925826231559037 0.5120633210938728
 0.4925398770956411 0.5122071389486733
 0.4926431241987446 0.5121935591761414
 0.4926354045924017 0.512179094126708
 0.4924333186701573 0.5111933938712572
 0.492423506746029 0.5115972988215254
 0.4922213009043327 0.5117583725153754
 0.4922660463633527 0.5125261761957236
 0.4922665185038639 0.5125471517855792
 0.4922770624384333 0.5134051751727997
 0.4922702036132093 0.513314287234608
 0.4922543050027184 0.5126174542081243
 0.4922453010928636 0.5131307543636701
 0.4923345097618599 0.5127996716474484
 0.4922489847921209 0.5096854115883789
 0.4922747999366393 0.5111112831141293
 0.4922360829849769 0.5110300475337417
 0.4922583291167442 0.5110155304916332
 0.4922519236806283 0.5105216808987387
 0.4922199045682656 0.5100673328971524
 0.4922200668468944 0.5100075550958066
 0.4921541547795512 0.5100118943973723
 0.492184616869744 0.5100071024670616
 0.4921803735992252 0.5111297197822233
 0.4921768673621441 0.5104078881139421
 0.4921758463045617 0.5104105456179527
 0.4921905501797174 0.5103734617468338
 0.4921824619838005 0.5099605010743608
 0.4921809135292024 0.5098576381621348
 0.4922009183023904 0.5099562567486979
 0.4921838216577574 0.5096318079576928
 0.4921762036382449 0.509706960007032
 0.4921963987733236 0.5097280222143936
 0.4921856633180471 0.5097282071800765
 0.4921822844447653 0.5092157687503818
 0.4921781546697409 0.5093400206715806
 0.4921795698154008 0.5083543775503447
 0.4921681624273128 0.5083282301156301
 0.4921425558308745 0.5124740901826813
 0.4921504310987115 0.5117969020697695
 0.4921706040911801 0.5117228867271102
 0.4921614514709262 0.5118399813833907
 0.4921672909250233 0.5115841682274888
 0.4921672746841512 0.5116141936055705
 0.4921607939910638 0.5146454353281004
 0.492161115320505 0.514682422588786
 0.4921584592789783 0.5146002054755376
 0.4921689528356002 0.5145119483955075
 0.4921638852681798 0.5145614825439162
 0.4921609949724614 0.5145995279685096
 0.4921599614930967 0.5142987120839242
 0.4921623549219391 0.5143184192453258
 0.492159252524521 0.516495725831841
 0.492161183359956 0.5165790594808323
 0.4921582711577013 0.5155485847679463
 0.4921572549750787 0.5156076154888544
 0.4921547969605853 0.5153424947980099
 0.4921527521547222 0.5151974722946664
 0.4921514470059069 0.5152740377215326
 0.4921530635490164 0.5152745912562116
 0.4921508121296638 0.5150184415761017
 0.4921532010463709 0.5150305011631049
 0.4921552741880433 0.5150436742461324
 0.4921552337851546 0.5163932369472074
 0.4921526801260335 0.5160562356086961
 0.4921499515426287 0.516043706755922
 0.4921507965814965 0.5164147293071699





# name: PV
# type: cell
# rows: 1
# columns: 5
# name: <cell-element>
# type: matrix
# rows: 100
# columns: 2
 0.3346995549365787 0.5681699885875812
 0.5796156852918879 0.5912595641736349
 0.6605462656390061 0.5137695969633701
 0.4545964483804684 0.5209253335378513
 0.5266129730824853 0.5456992291807672
 0.6374276865436307 0.5549830099996782
 0.5257652020944702 0.587382237956058
 0.5775569423024113 0.6374982622086557
 0.4414122772777467 0.5684940490325341
 0.6044537861116421 0.569329029023028
 0.4438515416477216 0.6020824882236741
 0.5662414089174405 0.6689288805278936
 0.6571229896269942 0.6341008948929288
 0.4697534182252617 0.6108665963858425
 0.4552879391278862 0.6142066435004206
 0.4144977303391332 0.55035778098928
 0.5633118556638347 0.5245677727931709
 0.6278523839320559 0.6471615878107809
 0.6363164093627232 0.6877462516795
 0.4610306994922859 0.6062040010181214
 0.5004249216988793 0.5502086787254142
 0.71483089992172 0.5416174021815118
 0.561671948400995 0.5878664926504488
 0.5183770065339769 0.6320554541829418
 0.5639273859905811 0.581761610682889
 0.6093645412214302 0.6120774278414771
 0.5580713828710938 0.6610119087803096
 0.5810779827218807 0.5828737594328679
 0.4983119868202993 0.573645792416637
 0.5950103827799426 0.669802675306539
 0.6709786625651023 0.5697168001614764
 0.4900625648446008 0.6366361372171168
 0.6121674809229963 0.5667102133821296
 0.5067999735659131 0.6296900693821202
 0.4918696780798811 0.6377988016535624
 0.6234589545021617 0.5932078446379566
 0.5267478983177328 0.5420139433508264
 0.6408239202625173 0.6790513288234016
 0.6106085753479205 0.6858362586277608
 0.5650183534266415 0.6187364367495151
 0.6514068912338086 0.604877079711331
 0.4610306994922859 0.6254531028766775
 0.5601803668002109 0.6370195390292411
 0.5206439969954458 0.6009059921383149
 0.5690984869984022 0.5882431084671579
 0.5271994141798196 0.6577995651134873
 0.5926632023034725 0.529042321802076
 0.6178666182693686 0.6025023425285017
 0.5378514150774354 0.5670469611449116
 0.5516965689329093 0.6179553806340152
 0.6193678379463484 0.688794393754561
 0.5580965341929897 0.5386799938490358
 0.6283675308884702 0.5977294065173792
 0.5872797759539083 0.6805581148827936
 0.5562171206811907 0.6209028961286366
 0.5404405174811441 0.5997821186023106
 0.6143669308966299 0.5474513241781379
 0.5171136798055103 0.6212434907599398
 0.6750187088400662 0.6350675360417487
 0.6319713973884069 0.6337162329972886
 0.604903319276037 0.5978853550923963
 0.4694947249229532 0.6068690158025206
 0.5799172036020077 0.6102442642633613
 0.5731582035663564 0.5921010237875329
 0.6662946200813439 0.6150980151430285
 0.6301524693503814 0.5609178926611528
 0.6348679527320509 0.5648961207772286
 0.5665057936705596 0.608700516275093
 0.6557474807190575 0.6561000149271058
 0.5453940935178875 0.6067244650836785
 0.5990545693846052 0.5789977624711401
 0.5698822226611694 0.5489759119170554
 0.627012529009879 0.5950645966234837
 0.6829579391798978 0.6968507728238754
 0.5696456766659892 0.6215590669055931
 0.6153461688577938 0.6425800885292173
 0.4610306994922859 0.6000183561364877
 0.5944022454305246 0.691227315359415
 0.606792264296027 0.5895857686887352
 0.4610306994922859 0.6692753635589058
 0.5406504686527123 0.5855751823353893
 0.6837358224769526 0.6434355160896217
 0.615571938036832 0.5800337081858329
 0.5452741894541339 0.5337804751675539
 0.6025579470565122 0.6840953220860616
 0.5240447569643309 0.6681598825514335
 0.5164015745586852 0.589984171034393
 0.4832088664679746 0.6234664572983944
 0.424020888224616 0.5499912780078094
 0.6024519028400751 0.6564812684203961
 0.682722093525112 0.5970666098734908
 0.5623802276982216 0.5538840034693228
 0.4948655025858417 0.6915684937956031
 0.6505966292524027 0.5737505777316819
 0.5155148403291845 0.6868042068691677
 0.7043926957721848 0.6174800265213286
 0.5137754220578727 0.5975509355272995
 0.497818827985648 0.6003487966940589
 0.579742798560075 0.5275215754202212
 0.5888299815853523 0.6357043233116513



# name: <cell-element>
# type: matrix
# rows: 100
# columns: 2
 0.2431202170989832 0.3597612213955875
 0.2958056402409955 0.3634645041780404
 0.2427820460169448 0.2294503579710517
 0.2961109430635147 0.3537457112636284
 0.3206745347915306 0.1761963643668778
 0.2616696894312622 0.2401695144132459
 0.1804242875156247 0.1604172660782925
 0.1649888282688881 0.2114558876610391
 0.1869260976539501 0.3037219215280935
 0.1576765182498894 0.1744392474998565
 0.3258830338044849 0.3280119321376986
 0.309244057153217 0.2937518858696598
 0.1182955383684231 0.2901964683985047
 0.3125218002274958 0.3318318010891886
 0.3177855051562408 0.3379288711940263
 0.1792183635818283 0.3110762223656129
 0.1488023761117177 0.2267289428308303
 0.3021648198312781 0.2890429955110155
 0.2894038331818304 0.4129743859685078
 0.2613136443374299 0.3100207733678069
 0.23154082778443 0.2942046572020657
 0.3601489300661723 0.3531503138496038
 0.2340481430005299 0.2713326750735602
 0.30124585704396 0.3209468719616982
 0.3090525980401044 0.361491609580544
 0.2401249505371233 0.2650459399946688
 0.2262885048770956 0.305558098931706
 0.2933386264973686 0.2854237293907007
 0.1695983624263092 0.2823525511740138
 0.3681768551114982 0.3112555878410669
 0.388343997362891 0.3849302934033825
 0.3148650927446101 0.338405092823694
 0.3209420465929181 0.3507107571947827
 0.3313756942530612 0.3068667412317712
 0.3587304924663907 0.2987382036005121
 0.3164554392343276 0.1626288882809504
 0.2537952190301053 0.4121257770675293
 0.3380802606305569 0.4437580580797411
 0.3986777011431505 0.3770883052347656
 0.3870084018181972 0.3752027278882054
 0.3065144506465139 0.3770883052347656
 0.2108876155356056 0.3842407551928162
 0.2836633743836698 0.3770883052347656
 0.09282231611068864 0.3908868681913314
 0.2987172087282512 0.3779686255040508
 0.3720517916344855 0.3953942294543929
 0.3830976396854006 0.4180818395759587
 0.3741046665124926 0.4142070448762243
 0.3654879676635102 0.3805052319293598
 0.220181533826732 0.4014658353313006
 0.2792197635382828 0.424122691365688
 0.3563166897567449 0.3862889422492959
 0.1449126673298236 0.3770883052347656
 0.166564104453551 0.3759654316979277
 0.1795962257655722 0.3639972380971134
 0.3438962902159625 0.3770883052347656
 0.3048805138247258 0.371625102102685
 0.3773458711546184 0.417879500087632
 0.2638043754964926 0.3857620090774506
 0.3160724284396682 0.3674140975519546
 0.133819668303937 0.3770883052347656
 0.2573361200194348 0.3770883052347656
 0.2720301020639245 0.3435495507974181
 0.3724149370271735 0.3770883052347656
 0.2849509686599294 0.3394708046542904
 0.2481191638382748 0.3463122285072593
 0.2491919703045803 0.3604215481257123
 0.4666194718491016 0.3770883052347656
 0.3047201331153242 0.371173838070689
 0.3665970396536493 0.3431778712491979
 0.2504582822737956 0.3770883052347656
 0.1776603235538493 0.364578557897465
 0.3439923637986917 0.3732258252267295
 0.3138336034512437 0.3770883052347656
 0.267785778203449 0.3428318527251162
 0.3033916536299097 0.3770883052347656
 0.3506597869214462 0.3401024075163427
 0.260585656802045 0.3547327228908757
 0.3722387935805399 0.3453574159196556
 0.2786972157285261 0.3770883052347656
 0.4375374330398357 0.3435845106657652
 0.2948274697656992 0.3738275289049569
 0.1730596931245156 0.3438315828623992
 0.3178623520252999 0.3464839860323271
 0.3529611075001091 0.3770883052347656
 0.3002089093964292 0.3770883052347656
 0.2194243441730128 0.3663485981884913
 0.465420365204481 0.3742679575422079
 0.3075134956372716 0.3549744817114881
 0.34031205548168 0.3536772913009312
 0.2126085140940548 0.3709069038540631
 0.2432726136371052 0.3560530448431954
 0.4150305284820028 0.3638220673255047
 0.3550705166977592 0.3710989860250217
 0.3340408872129995 0.3770883052347656
 0.3518585910762912 0.3447667773909252
 0.2440701822792757 0.3298781713543444
 0.2664257517414131 0.3528915223025548
 0.2024907189371627 0.3395498300738309
 0.3454261086616958 0.3594731358100369



# name: <cell-element>
# type: matrix
# rows: 100
# columns: 2
 0.06245304981196909 -0.1317184130642868
 0.1521769093428075 -0.04915487030653237
 -0.1682670707348791 0.1986694707575575
 0.2113133973132607 0.1811034388388322
 -0.03616776969360042 0.1991009826253311
 -0.01163381535063074 0.2751568465704413
 0.09884256820589313 0.2212473481834845
 -0.0332915355744719 0.1427154809950394