# Created by Octave 4.0.0, Wed May 09 11:38:03 2018 CEST <olethros@olethros-OptiPlex-9010>
# name: results
# type: struct
# ndims: 2
 1 5
# length: 8
# name: options
# type: cell
# rows: 1
# columns: 5
# name: <cell-element>
# type: scalar struct
# ndims: 2
 1 1
# length: 8
# name: A
# type: scalar
2


# name: X
# type: scalar
8


# name: Y
# type: scalar
2


# name: Z
# type: scalar
2


# name: lambda
# type: scalar
0


# name: n_iter
# type: scalar
100


# name: horizon
# type: scalar
100


# name: n_samples
# type: scalar
1





# name: <cell-element>
# type: scalar struct
# ndims: 2
 1 1
# length: 8
# name: A
# type: scalar
2


# name: X
# type: scalar
8


# name: Y
# type: scalar
2


# name: Z
# type: scalar
2


# name: lambda
# type: scalar
0.25


# name: n_iter
# type: scalar
100


# name: horizon
# type: scalar
100


# name: n_samples
# type: scalar
1





# name: <cell-element>
# type: scalar struct
# ndims: 2
 1 1
# length: 8
# name: A
# type: scalar
2


# name: X
# type: scalar
8


# name: Y
# type: scalar
2


# name: Z
# type: scalar
2


# name: lambda
# type: scalar
0.5


# name: n_iter
# type: scalar
100


# name: horizon
# type: scalar
100


# name: n_samples
# type: scalar
1





# name: <cell-element>
# type: scalar struct
# ndims: 2
 1 1
# length: 8
# name: A
# type: scalar
2


# name: X
# type: scalar
8


# name: Y
# type: scalar
2


# name: Z
# type: scalar
2


# name: lambda
# type: scalar
0.75


# name: n_iter
# type: scalar
100


# name: horizon
# type: scalar
100


# name: n_samples
# type: scalar
1





# name: <cell-element>
# type: scalar struct
# ndims: 2
 1 1
# length: 8
# name: A
# type: scalar
2


# name: X
# type: scalar
8


# name: Y
# type: scalar
2


# name: Z
# type: scalar
2


# name: lambda
# type: scalar
1


# name: n_iter
# type: scalar
100


# name: horizon
# type: scalar
100


# name: n_samples
# type: scalar
1







# name: PU
# type: cell
# rows: 1
# columns: 5
# name: <cell-element>
# type: matrix
# rows: 100
# columns: 2
 0.5156168892144504 0.4811615055865463
 0.5382853355468455 0.4765460042543164
 0.496771362130607 0.5241900536422598
 0.5134298467191978 0.5280251100095253
 0.576149819212221 0.5042146442926635
 0.4711414711381554 0.542500576936797
 0.5684896904465173 0.523741862362135
 0.5031230295450204 0.5257054241169331
 0.5123193703198272 0.5588597668498707
 0.5190537863771906 0.5655786498456824
 0.5484032175979234 0.528990471720426
 0.5271038549816085 0.5318980492886787
 0.5246638364691242 0.555392616414022
 0.4879930836783083 0.5314621043203472
 0.5586577840796021 0.5162696099936673
 0.5114702337603555 0.5301090755480633
 0.5359807736838678 0.5548811327436214
 0.5479849476611551 0.5612958952434881
 0.5315581037810611 0.5075964025636605
 0.4850727351602357 0.5456567722867575
 0.4512872901178235 0.5425675248889275
 0.5661722573322148 0.5123876841446998
 0.506694157150354 0.5412924926219318
 0.4995419299294148 0.528001436278406
 0.4619996271675349 0.5019780939784111
 0.50947438386 0.556153526771862
 0.4836853687687897 0.5573689218426822
 0.5232484713091017 0.5496637572651091
 0.5702102495204289 0.5438398741647731
 0.5762635442741688 0.5647747835103972
 0.4888841925844354 0.5655816725636771
 0.5657526426267994 0.5597472165577392
 0.4944243860890473 0.5602469234649128
 0.5624131948692556 0.5628726717616256
 0.5708664724806993 0.5590512030517404
 0.5160071069276769 0.5601413882719943
 0.5038821918481037 0.5644517806220926
 0.5476652608808791 0.5587619522897593
 0.4735698135875281 0.5543851594374067
 0.5727982786654816 0.570118110720391
 0.5641108004977977 0.5671675110327545
 0.514034045243477 0.5696544226808778
 0.5108329126931104 0.5698162070390838
 0.5161433798349833 0.5668192113473964
 0.5667444968424356 0.5694469898790911
 0.536645291787233 0.569948987782994
 0.5736658237206946 0.5709458036698635
 0.4779803549135943 0.5729737664596491
 0.5498982068796691 0.5626585434996669
 0.4854118519833161 0.5674932782366851
 0.5118368808473317 0.5635179522879372
 0.5024991852192707 0.5685800235486305
 0.5136783102008819 0.5643022147931966
 0.5125093958266511 0.5576969246188435
 0.5165558468791868 0.5570884533230724
 0.5034797471952829 0.5641917135203414
 0.4557345971865728 0.551940896645861
 0.4567111947693958 0.5520201121375098
 0.5499515939913222 0.5536956778436625
 0.5129082497575339 0.5551185926755385
 0.4559628243107914 0.5471289674222899
 0.4438771445073168 0.5658991652649955
 0.4511660919449308 0.5424660933152599
 0.4496209564151961 0.5419548278164706
 0.5165558468791868 0.5615244537488472
 0.4555081830280114 0.5486274589755159
 0.4550264428397809 0.5490035400545747
 0.4447679003931677 0.5558672296457053
 0.4515312018412708 0.5431915026841122
 0.479420111634072 0.5468698747005548
 0.4846914935227649 0.5414268889639081
 0.532995916458155 0.5466285445791855
 0.4613300367185575 0.5526117314330923
 0.4770933013157428 0.5495348261510141
 0.5297675696763787 0.5595064893446866
 0.4453855173244343 0.5581847076414607
 0.4678870361117289 0.5637712456073076
 0.5302101483229827 0.5604990936244018
 0.5037847488451708 0.5603059120063937
 0.5030056182468531 0.5559059522660353
 0.4342652966472025 0.549535430866856
 0.5203672170436396 0.5609137075970638
 0.4618533156417502 0.5647590485947608
 0.471165447367367 0.5593733545396437
 0.5350223208768449 0.5679289591305972
 0.4758656923543656 0.5653484086937202
 0.4565478128218347 0.5549225395053022
 0.5640407160256778 0.5545682987470286
 0.5235222310748779 0.5577970637365322
 0.5091837863921345 0.5598651149574763
 0.5089859282375558 0.5587765726661181
 0.5661871220929835 0.555075315651594
 0.5246771176132791 0.549529922519717
 0.4763714355834822 0.5579035166140852
 0.4595891097026364 0.5579248399185863
 0.5103803948499976 0.5494743577773801
 0.535196839836376 0.5533348330646479
 0.4374764263666195 0.5679766747336333
 0.5301287695811987 0.5494119622171771
 0.470466164527965 0.5513845280216487



# name: <cell-element>
# type: matrix
# rows: 100
# columns: 2
 0.4721924864200676 0.4873229942986385
 0.5184214257130084 0.4873229942986385
 0.5067409704366912 0.5225118207237407
 0.506533860118366 0.4945050684430107
 0.5479762837133734 0.5316089697180113
 0.5537575446628753 0.5413131986773649
 0.5391393243099258 0.5481343137709004
 0.55467445409889 0.5456450534909301
 0.4838146637388117 0.5680849525737044
 0.5644819994768943 0.5380976093742107
 0.4592872842253452 0.5298819496844955
 0.466130928213912 0.5439476777842435
 0.4883054322868941 0.5512286956224954
 0.4898069752509304 0.5442722100767687
 0.5418211333724005 0.5615321975784879
 0.5490555054976582 0.5204902361275991
 0.5706985944736587 0.5338687188784521
 0.5492836487793762 0.5295193893274538
 0.5039106287537982 0.5420798672138378
 0.4902719452983459 0.5281792251824421
 0.5911669324031219 0.5583634057547935
 0.579022560623436 0.5812466531132352
 0.5361441521956702 0.5703089230976953
 0.4516766835889387 0.5680920168279376
 0.5609295077666298 0.5691551151823211
 0.5171475006280783 0.5769539192861768
 0.4952422426421639 0.5673956668930297
 0.5911062177408135 0.5847634379186053
 0.5899121801933538 0.5813224241026976
 0.517212762943708 0.5773538648076129
 0.5588784921523241 0.5600685678199193
 0.4891698642000425 0.5665990370341759
 0.4938619008373277 0.5572239619236024
 0.5168537797470087 0.5756025552153201
 0.5097816908315715 0.5698056114487811
 0.5461905322375067 0.5536204103399929
 0.5315336213594342 0.5463458659549894
 0.4819956817216339 0.5188824836705999
 0.5262681233455209 0.5178125422584087
 0.5075310465158485 0.5168193177736775
 0.4544732508362849 0.5465551501363385
 0.5147696336200767 0.5445007362543509
 0.4942012854008448 0.5442923147643796
 0.5258807640200011 0.5422525553698054
 0.4953657333422105 0.5481519609382211
 0.5272756447647726 0.5307867640011135
 0.5310686674319588 0.5394459362649359
 0.4861966999778698 0.5281952877434315
 0.5084882492064109 0.5150033091721319
 0.5365760772188882 0.5338397622062314
 0.5311513011788793 0.5183019539994418
 0.5158383923320601 0.5187171432188649
 0.470245894309873 0.523249270112044
 0.4994144686470921 0.5253413715323114
 0.4733955754826744 0.5207310328277399
 0.4553146366298828 0.5310094780398084
 0.5557174030345479 0.5389859704935842
 0.4850765147439668 0.5596790099421529
 0.4896484978897511 0.5580182409209051
 0.5525767087719451 0.5511393809815014
 0.5502943658255214 0.544995326049481
 0.471637412811749 0.5557197820189289
 0.5776594055465064 0.537746307572347
 0.540152657055788 0.5331081762403181
 0.5340134246871372 0.5389899405023504
 0.4812538255257069 0.5283845584878519
 0.5201160110382015 0.5258738286779389
 0.4800303703275579 0.5172323562736394
 0.5541212291331341 0.5243750329206682
 0.4482826357257381 0.5268017611293127
 0.467613428616343 0.5110045467444921
 0.543988593436415 0.509436425006849
 0.5161964479713216 0.5160722460191305
 0.4982597204969166 0.5149086681273728
 0.4908679485697567 0.5142317634196408
 0.5247710735750163 0.509782346080291
 0.4994570154284027 0.5075219690596001
 0.5284731347659974 0.5096153092250671
 0.4568707049384486 0.5237183636652649
 0.5195560466947515 0.5148207519943763
 0.5324629120999641 0.5121267414065718
 0.5042684267733929 0.5119449200061401
 0.5013343874247822 0.5104769295668632
 0.4999063188478145 0.5124047924574155
 0.4883947570952171 0.5108346772302419
 0.5530202678557538 0.5079660301377326
 0.5189253640844997 0.5102379941866914
 0.5046440315302354 0.5090520139464181
 0.5465928624819046 0.5105478777507636
 0.5104851324207444 0.511951029354903
 0.4920605473958788 0.510475608237725
 0.4770332085423772 0.5135335862619014
 0.4819891943859259 0.5249430471163717
 0.5210475547511231 0.5091435823460041
 0.510602330929715 0.5175966231650342
 0.5047114831009606 0.512509525588746
 0.5375458226530031 0.5211445573534629
 0.4718322406151485 0.5126448698855736
 0.5308864776728325 0.5124921251501279
 0.5116570690584704 0.5209657609308133



# name: <cell-element>
# type: matrix
# rows: 100
# columns: 2
 0.4381780045660533 0.4535609949533728
 0.5617339492317395 0.4652504088403581
 0.4767041512086217 0.489369641504192
 0.5253342841284591 0.5001125738841877
 0.5131233369499101 0.528748596047387
 0.4872975236185181 0.5163815449881966
 0.5025452860730807 0.5400743646996389
 0.5066899132665591 0.5295958133725907
 0.4903003422800546 0.5520848805662029
 0.5184176638987046 0.5167984016227944
 0.5720332401165966 0.5076180498607182
 0.4830307151984937 0.5203930639094856
 0.5604856330532938 0.5417277138672624
 0.4789024140486046 0.528759962347281
 0.474664035970848 0.4966631607512177
 0.4927233716019385 0.5206952579952349
 0.5147423625149489 0.5124244006554727
 0.4640862351339142 0.5040966405963604
 0.5117768993217597 0.5183423507126879
 0.5067551506603007 0.5145419671724764
 0.503058721574526 0.5163648009559475
 0.4655585365493833 0.515631804957195
 0.4543601168915197 0.4900140928089873
 0.5219251520611362 0.48576990645649
 0.5129334744808736 0.4833722540041908
 0.5597749064995498 0.4749993955940614
 0.5725672053069798 0.5189095741563755
 0.5277756738981055 0.4725348510111618
 0.5773901178988383 0.5044721815576447
 0.5154378444581713 0.4611439302079883
 0.5180222478343363 0.5076379397753371
 0.5644169976828399 0.5322421252715185
 0.4942437930246752 0.5328203660901765
 0.5179240528782799 0.5446780100477754
 0.5595705546969011 0.5468889207275138
 0.5147268940352181 0.5515853489981885
 0.5610881531354925 0.5087425628357113
 0.4998776230091109 0.5236657495738486
 0.531341433467963 0.5358580727904381
 0.5277653824917837 0.5622025485828639
 0.5725504188279312 0.5570417020829568
 0.5476853614300736 0.5555465528681547
 0.543804670922389 0.5506472589211184
 0.5697426366188065 0.5400918258519506
 0.5087670408885797 0.5594066892554398
 0.5378566274402857 0.5540484531107478
 0.5482703977497068 0.561539793160434
 0.5512738399749244 0.5380600227718277
 0.5565445965619776 0.5618726405607209
 0.5164716432218057 0.5568960372354161
 0.5411180582529244 0.5570417020829568
 0.5203374964010072 0.549749354066231
 0.5360015018335499 0.5452140360253118
 0.5214029525190615 0.5605956887504127
 0.5251773483432393 0.5407965537561227
 0.5206195893692201 0.5533609499275746
 0.5386879537090878 0.5611480098102305
 0.5273207982242986 0.5657615407609177
 0.5241537193728425 0.5500248314665249
 0.567463417412267 0.5422241415238512
 0.5778815801267014 0.5500704199746551
 0.5119509239431733 0.5662938045855197
 0.5397294658432999 0.5471026313342091
 0.4914705923829811 0.5638158268109544
 0.534660759101366 0.5480581090954179
 0.5484233028325306 0.5533056550303446
 0.5634348901969733 0.5477181877471586
 0.4930808462395139 0.555401066020774
 0.5399854346516919 0.5493548125839741
 0.5354233535957442 0.5482388411316285
 0.5135403871226533 0.5539859668967108
 0.5147882222004506 0.5587950248791221
 0.5158522479094133 0.5570417020829568
 0.5058775828911171 0.5443585476537895
 0.5372212125160116 0.5496362199635112
 0.5771102791620923 0.5372395832623178
 0.5025492988339029 0.5532967337473473
 0.5612860556312455 0.5570417020829568
 0.5152890363315249 0.5449101549336766
 0.5584094393192155 0.5570417020829568
 0.5441643046382171 0.5472349994911259
 0.5289577535165891 0.5455221937487659
 0.5443276818041074 0.5466860881965001
 0.520445591729091 0.5570417020829568
 0.5285965522091555 0.5422219920319784
 0.5593186782872721 0.5447312730732239
 0.5576543381123582 0.5356399081966984
 0.5133340765966258 0.5512164479709918
 0.5075523938920365 0.5531223930927032
 0.4963776243140158 0.5557469022959642
 0.538154462412416 0.5484912192376018
 0.5026140364719202 0.5495531179434014
 0.4712412351402817 0.5497073360393927
 0.4970609127949264 0.5388827742827009
 0.4934651585122259 0.5570417020829568
 0.5125052064809951 0.5536169365408011
 0.4943349409316222 0.5502764977731693
 0.5013990516027176 0.5463753750821362
 0.5122737530527748 0.5511657686796734
 0.5341449929190439 0.5344610482957183



# name: <cell-element>
# type: matrix
# rows: 100
# columns: 2
 0.5776114655071712 0.5119411110652624
 0.5024935686247122 0.5099482913172655
 0.530845972504483 0.4788163291310328
 0.4448999825111806 0.478217737920568
 0.4726946342708461 0.4843151638370683
 0.5330505191209776 0.491165578092959
 0.4829765756871066 0.4910857016578024
 0.4691058118750975 0.5061586762682508
 0.5127987891984782 0.4875223963805121
 0.4690731734004395 0.4997623518616015
 0.5010486053905046 0.489715361125435
 0.4605925674902678 0.4900246349716497
 0.4443180403179597 0.4879420759722692
 0.4439681061851545 0.5175624461959163
 0.4876746906040099 0.505309959548508
 0.4783481246819264 0.5093351043609664
 0.4958509287599863 0.5156978298194275
 0.4882832017172378 0.4954847477440311
 0.4378190158532047 0.5011611117048782
 0.4822706699115974 0.4874020320791673
 0.5047680234520244 0.490176060656032
 0.462273621982812 0.5127348834675756
 0.4688081938846745 0.4991704239795332
 0.535428058150716 0.4886859449066758
 0.490669726892728 0.4907297009833156
 0.4602439695497789 0.4872268577026506
 0.4572504207073221 0.5113008966095163
 0.480923755235768 0.4965686564656264
 0.5013883783192762 0.5135142685317627
 0.5047798259565959 0.5063751076508851
 0.5002710347693924 0.5085042179058398
 0.4758207125249957 0.4915945773149224
 0.4543618278888172 0.5018629078067652
 0.5237020718265993 0.4951097055635898
 0.5109118925615379 0.4973016749677098
 0.4845029900959352 0.4965501913788931
 0.5349739143151242 0.5067651017716068
 0.4484074715954383 0.5165356291700408
 0.4803332643644906 0.5016961334879672
 0.4903797070957548 0.4982917368400068
 0.4935790577979777 0.5019293296172443
 0.4694051900707463 0.4985995180161004
 0.4885441141964037 0.4972677052636972
 0.4996936745265776 0.4950332629003023
 0.4638897187356762 0.5007952187240993
 0.4755856007666469 0.5032040654748249
 0.4839845084076818 0.4978194535911221
 0.4802548511305421 0.5050476184766978
 0.4802400649825794 0.5077428971670037
 0.5191863212203535 0.5077589837803025
 0.4998538067192212 0.4830409766053768
 0.4430907476219276 0.5007171386620846
 0.4678811297957999 0.5084362021158865
 0.4910681389237083 0.5110683726429889
 0.4835853239477207 0.5042491000973289
 0.5208423521585606 0.4907055104777163
 0.4711088940008105 0.5062307625440027
 0.4935918439444773 0.5173489840502181
 0.4835250509876993 0.5031220659702174
 0.49101371625441 0.5014284424973601
 0.4968183122649891 0.5073281988090113
 0.4846090364715376 0.5054089198650347
 0.4681730141061023 0.4996628238312671
 0.4853240949837176 0.5028719618310583
 0.4932847504440434 0.4870180351555527
 0.5683373132198084 0.4967544572010266
 0.4973435114649522 0.5022770684251576
 0.4987861924047854 0.5153261970302551
 0.4689142866374787 0.4976421116625689
 0.5062005806509748 0.4943168051015364
 0.5154822922777325 0.4864017018624383
 0.5620533531748301 0.5044298969517461
 0.4882196980652341 0.4992213740614495
 0.5075643467258347 0.5047775124815922
 0.5182821282819413 0.4941620292098162
 0.4946887574675101 0.5021331281064083
 0.5105620055356758 0.5048669632480156
 0.516218460379649 0.5011919806048104
 0.546285398385115 0.5009767791861534
 0.5159108042731366 0.5061599980501159
 0.5009506138850088 0.4978061635786951
 0.5081100293070726 0.5015800498817937
 0.5360366107238206 0.4973292022248331
 0.4407039321907799 0.4900435488097042
 0.5448548866183771 0.5089184162262697
 0.5382400081061529 0.5116074839295495
 0.4907801978061809 0.5086967319098218
 0.5356858122832103 0.5046059674893575
 0.5074780016262993 0.5100607915215094
 0.5136206374811041 0.5007207657452044
 0.4932079902156637 0.5094173207238043
 0.4934721905691851 0.5127682156635901
 0.529351061876995 0.4931495170737892
 0.5584823767443887 0.5070256234609878
 0.5132885431348324 0.5125066861024486
 0.5470683644884287 0.4953569963675589
 0.484560102833812 0.5032137982469734
 0.4824030934263123 0.5158823465481126
 0.4911475614786126 0.509774048517432
 0.5376148144365465 0.4931286579494113



# name: <cell-element>
# type: matrix
# rows: 100
# columns: 2
 0.5064105053614809 0.5121010919505808
 0.5082082746397177 0.5121010919505808
 0.50623097691064 0.5121010919505808
 0.5055352903554702 0.5121010919505808
 0.5067367426196006 0.5121010919505808
 0.5049014872774931 0.5121010919505808
 0.5088804424774594 0.5121010919505808
 0.5084164844800785 0.509823264867781
 0.508272732508165 0.5092034743506186
 0.5081990017370166 0.5091640200944668
 0.5085710604117525 0.5091389273006595
 0.5080435242828418 0.5085783597973762
 0.5067520547043932 0.514575566615619
 0.5086733314581553 0.5143162244908133
 0.5085481450264043 0.5147283176869545
 0.508941587130804 0.5133725499467756
 0.5098446815704172 0.5109635773753646
 0.5097273447323483 0.510965976625555
 0.5081548888897417 0.5108410716104673
 0.5089088565419572 0.5109131359530749
 0.508241895872676 0.5110218312665551
 0.4955113964348517 0.5108863010044606
 0.4957624448596687 0.510305105180362
 0.4974590461568655 0.5101221332606412
 0.4977141270386418 0.5097091771003971
 0.4980826623439037 0.5092327726714725
 0.4987600323090751 0.5091959048904668
 0.4983306255189448 0.5091874979889333
 0.4985510473443812 0.5091767488966372
 0.4991140591391271 0.5097516364048694
 0.4988144383714807 0.5095492923130152
 0.5003575227598005 0.5099101807695867
 0.5016658940025718 0.5099063670528793
 0.5009692794976464 0.5098423884862678
 0.5008899671805874 0.5097479973970079
 0.5007384869721039 0.5096525420042121
 0.5007687505570778 0.5097254075442611
 0.5007104272306899 0.5096452239846556
 0.5008143023786253 0.510049644274035
 0.500669554720845 0.5100374390737871
 0.500825297482533 0.5101764153602966
 0.5008108721390488 0.5105292749400823
 0.5006650897144521 0.5106316128644856
 0.5006500669806264 0.5109632449776595
 0.5006424841628444 0.5112821250023091
 0.5006626795772232 0.5115853581021891
 0.5004907197448236 0.5116093148690651
 0.5004702089187956 0.5109869512305021
 0.5005208925534391 0.5100493017332699
 0.5006896335669582 0.509870690418346
 0.5006908618316728 0.5098825508091661
 0.5006058715304124 0.5099926528391479
 0.500269607494975 0.5101254974389204
 0.5001026974257964 0.5100730442036281
 0.5001437845961775 0.509127038105466
 0.5002149870093962 0.5087356849780291
 0.5002430069379508 0.5090556957646201
 0.5002257036079207 0.5091091322400203
 0.5003412400263274 0.5092054251377687
 0.5003269509252081 0.5091424146573057
 0.5003703635336031 0.5092071052313556
 0.5002758651183418 0.5091610050885136
 0.5002960511234402 0.5092499432827198
 0.5002960578017714 0.5090662124889737
 0.5003390552360856 0.5091363700628251
 0.5003192692478123 0.508834110174566
 0.5003182030294411 0.5089465177104483
 0.5002783339166538 0.5090625985141887
 0.5002903693369446 0.5090018904518893
 0.5003002236636477 0.5089602387449643
 0.5002901600017333 0.5089377935257383
 0.5003060150713516 0.5089351594466429
 0.5003143935217775 0.509089075408153
 0.5003178588659722 0.5091148640704888
 0.5003132110544936 0.509250091094214
 0.500304212744598 0.5090808588420841
 0.500316477045136 0.5090982239330173
 0.500320131515175 0.5090122394941075
 0.5003196197845688 0.5089898875724146
 0.5003126362660584 0.5089758182488723
 0.5003144633919587 0.5089830680588346
 0.5003166675804137 0.5089982111530986
 0.5003082896925944 0.5090610195547869
 0.5003124249727418 0.509056685595269
 0.5003176306334585 0.5090987499123412
 0.5003188605436719 0.509070272821424
 0.5003184439565316 0.5090489231819492
 0.5003207355389012 0.509005356878495
 0.500320064189919 0.5089889154214098
 0.5003173745577516 0.508987802318561
 0.5003158079226608 0.509200107777663
 0.5003196530052794 0.5092352144177404
 0.5003188053547488 0.5092404938710405
 0.5003203477987658 0.5092353238148966
 0.5003178481604738 0.509237641399912
 0.5003212797344796 0.5092097983956916
 0.5003199383656775 0.5092174177197352
 0.5003223512921802 0.5092444697805962
 0.5003217269518078 0.509221515662615
 0.5003226688235475 0.5092540013655926





# name: PV
# type: cell
# rows: 1
# columns: 5
# name: <cell-element>
# type: matrix
# rows: 100
# columns: 2
 0.5156168892144504 0.4811615055865463
 0.5382853355468455 0.4765460042543164
 0.496771362130607 0.5241900536422598
 0.5134298467191978 0.5280251100095253
 0.576149819212221 0.5042146442926635
 0.4711414711381554 0.542500576936797
 0.5684896904465173 0.523741862362135
 0.5031230295450204 0.5257054241169331
 0.5123193703198272 0.5588597668498707
 0.5190537863771906 0.5655786498456824
 0.5484032175979234 0.528990471720426
 0.5271038549816085 0.5318980492886787
 0.5246638364691242 0.555392616414022
 0.4879930836783083 0.5314621043203472
 0.5586577840796021 0.5162696099936673
 0.5114702337603555 0.5301090755480633
 0.5359807736838678 0.5548811327436214
 0.5479849476611551 0.5612958952434881
 0.5315581037810611 0.5075964025636605
 0.4850727351602357 0.5456567722867575
 0.4512872901178235 0.5425675248889275
 0.5661722573322148 0.5123876841446998
 0.506694157150354 0.5412924926219318
 0.4995419299294148 0.528001436278406
 0.4619996271675349 0.5019780939784111
 0.50947438386 0.556153526771862
 0.4836853687687897 0.5573689218426822
 0.5232484713091017 0.5496637572651091
 0.5702102495204289 0.5438398741647731
 0.5762635442741688 0.5647747835103972
 0.4888841925844354 0.5655816725636771
 0.5657526426267994 0.5597472165577392
 0.4944243860890473 0.5602469234649128
 0.5624131948692556 0.5628726717616256
 0.5708664724806993 0.5590512030517404
 0.5160071069276769 0.5601413882719943
 0.5038821918481037 0.5644517806220926
 0.5476652608808791 0.5587619522897593
 0.4735698135875281 0.5543851594374067
 0.5727982786654816 0.570118110720391
 0.5641108004977977 0.5671675110327545
 0.514034045243477 0.5696544226808778
 0.5108329126931104 0.5698162070390838
 0.5161433798349833 0.5668192113473964
 0.5667444968424356 0.5694469898790911
 0.536645291787233 0.569948987782994
 0.5736658237206946 0.5709458036698635
 0.4779803549135943 0.5729737664596491
 0.5498982068796691 0.5626585434996669
 0.4854118519833161 0.5674932782366851
 0.5118368808473317 0.5635179522879372
 0.5024991852192707 0.5685800235486305
 0.5136783102008819 0.5643022147931966
 0.5125093958266511 0.5576969246188435
 0.5165558468791868 0.5570884533230724
 0.5034797471952829 0.5641917135203414
 0.4557345971865728 0.551940896645861
 0.4567111947693958 0.5520201121375098
 0.5499515939913222 0.5536956778436625
 0.5129082497575339 0.5551185926755385
 0.4559628243107914 0.5471289674222899
 0.4438771445073168 0.5658991652649955
 0.4511660919449308 0.5424660933152599
 0.4496209564151961 0.5419548278164706
 0.5165558468791868 0.5615244537488472
 0.4555081830280114 0.5486274589755159
 0.4550264428397809 0.5490035400545747
 0.4447679003931677 0.5558672296457053
 0.4515312018412708 0.5431915026841122
 0.479420111634072 0.5468698747005548
 0.4846914935227649 0.5414268889639081
 0.532995916458155 0.5466285445791855
 0.4613300367185575 0.5526117314330923
 0.4770933013157428 0.5495348261510141
 0.5297675696763787 0.5595064893446866
 0.4453855173244343 0.5581847076414607
 0.4678870361117289 0.5637712456073076
 0.5302101483229827 0.5604990936244018
 0.5037847488451708 0.5603059120063937
 0.5030056182468531 0.5559059522660353
 0.4342652966472025 0.549535430866856
 0.5203672170436396 0.5609137075970638
 0.4618533156417502 0.5647590485947608
 0.471165447367367 0.5593733545396437
 0.5350223208768449 0.5679289591305972
 0.4758656923543656 0.5653484086937202
 0.4565478128218347 0.5549225395053022
 0.5640407160256778 0.5545682987470286
 0.5235222310748779 0.5577970637365322
 0.5091837863921345 0.5598651149574763
 0.5089859282375558 0.5587765726661181
 0.5661871220929835 0.555075315651594
 0.5246771176132791 0.549529922519717
 0.4763714355834822 0.5579035166140852
 0.4595891097026364 0.5579248399185863
 0.5103803948499976 0.5494743577773801
 0.535196839836376 0.5533348330646479
 0.4374764263666195 0.5679766747336333
 0.5301287695811987 0.5494119622171771
 0.470466164527965 0.5513845280216487



# name: <cell-element>
# type: matrix
# rows: 100
# columns: 2
 0.3168354751786848 0.2930327184278059
 0.1169430510623768 0.2930327184278059
 0.2271540151172448 0.2184534542962644
 0.2237996238101274 0.1810188329033312
 0.163679139979704 0.2727370703295957
 0.2232139977484733 0.344149121291446
 0.2402368162870494 0.1621981792827507
 0.2822787902478441 0.2730772284949337
 0.1399223944187536 0.3524554546453871
 0.3163303879204895 0.01713553335871321
 0.2094584556663428 0.08512939621285054
 0.07014945861804545 0.3453218356395128
 0.05566114276679934 0.3512577148683579
 0.1605188665005089 0.1744344077529908
 0.305335134302626 0.2763960653328904
 0.3081706354963236 0.07059436833111182
 0.1016684053411077 -0.01170385342015406
 0.3059864609528882 0.07877156125283624
 -0.08109700509774809 0.1106906952737994
 -0.03688060767714862 0.008490896064743292
 0.3003014341816038 0.3519708082011292
 0.3305766482573817 0.3170491103032306
 0.2571293926191115 0.2213117853724488
 0.09902524696427742 0.3141139673158714
 0.1169168190734282 0.3137563179954861
 0.2621677742278045 0.2726590724843689
 0.3292834025527591 0.2671732769022436
 0.244011487281741 0.248507252714179
 0.2267361668582223 0.2541784257042617
 0.3399529559827331 0.2577893266808546
 0.1082157303592047 0.2152172541326802
 0.07647907469430332 0.248799497442216
 0.2086083857070238 0.2238655320876935
 0.2083545155061188 0.2646484663383289
 0.3450882302634217 0.2786508043154439
 0.2204447211393395 0.2080024292317484
 0.213796073723056 0.2632268078383638
 0.1950775000019165 0.3165178507384859
 0.3062270692941558 0.3114247357352138
 0.2412958233970451 0.2984264406340338
 0.1657864727032758 0.2897137604739272
 0.2804046500620798 0.2693767449616647
 0.3261294320111459 0.2738610489580318
 0.2966140563434792 0.2488499250513643
 0.2781347264221584 0.3082262711982064
 0.1994822723271227 0.3196756832161199
 0.0963847829471341 0.2986207136835082
 0.341950382125375 0.3300745225341606
 0.301470478724261 0.2935158633285351
 0.2291941959806706 0.3395715185099241
 0.0420656597202731 0.3505598237872145
 0.2819977229001756 0.3229893032283848
 0.2226754749227995 0.3035141978420648
 0.08278957144271964 0.3389730114276706
 -0.0009791757310795846 0.3401951478221634
 0.09187057924323708 0.2994955409173879
 0.2697315514259673 0.323317017044113
 0.2895583213798767 0.3344446693175825
 0.2539569287879032 0.269062395243646
 0.279440836077226 0.2180048558156593
 0.2940945657051883 0.3142962891171549
 0.1788082723319606 0.2642361414329764
 0.2944069514128224 0.2868542000668201
 0.3352116201004536 0.3429771659292151
 0.318270877149561 0.3262179601500482
 0.2901133577495215 0.3522628389806132
 0.2667034098082385 0.3539353213899871
 0.3282989859044366 0.3721023462296527
 0.3209585734628797 0.368596835086473
 0.1703127136488972 0.3747956235730205
 0.2200760827319019 0.3192426570550024
 0.2593590235338776 0.3638196571784586
 0.3441202860147088 0.2888164474832347
 0.323821557308353 0.3127899287151379
 0.1693709731997417 0.2927677901564266
 0.2786462908317141 0.3396118612461904
 0.2534109098001578 0.321965116641736
 0.1736420318722491 0.3353411560018032
 0.197989085875426 0.3183874553784565
 0.3106161803013748 0.3094323944529888
 0.3084035152872144 0.2660627824140334
 0.3761434110512952 0.2587792575953172
 0.185873183494082 0.2988619626931756
 0.256591287002262 0.3103236168669257
 0.3372261480767971 0.3323153215290622
 0.3292139897198976 0.3526642594507552
 0.09803257576431301 0.3167727272007547
 0.2906487132701109 0.2882729316366081
 0.3027806114724132 0.3377519398667915
 0.2492503627847233 0.3441612153740201
 0.1687616293773914 0.3091400469067416
 0.1851463130102347 0.3261371056071594
 0.213648114774204 0.3548292951305378
 0.1788878309969112 0.3590859327263375
 0.3789794398579516 0.330352047049253
 0.3122704593570233 0.3164044530966085
 0.2298040678000468 0.3130285866208916
 0.08398800041812465 0.288377286932623
 0.3919036019633206 0.3100072213726504
 0.3207683486827794 0.3170563910495569



# name: <cell-element>
# type: matrix
# rows: 100
# columns: 2
 -0.01939779025135766 0.01266193330498758
 0.08769017756424136 -0.08347503676386128
 0.155479086599197 0.1006289480556619
 -0.2802839327403532 -0.07744124371995698
 -0.08220570932152904 0.1003476266541074
 0.008078821138466613 -0.06772364038305428
 0.04689483689210819 0.06143005513633587