# Created by Octave 4.0.0, Wed May 09 11:38:16 2018 CEST <olethros@olethros-OptiPlex-9010>
# name: results
# type: struct
# ndims: 2
 1 5
# length: 8
# name: options
# type: cell
# rows: 1
# columns: 5
# name: <cell-element>
# type: scalar struct
# ndims: 2
 1 1
# length: 8
# name: A
# type: scalar
2


# name: X
# type: scalar
8


# name: Y
# type: scalar
2


# name: Z
# type: scalar
2


# name: lambda
# type: scalar
0


# name: n_iter
# type: scalar
100


# name: horizon
# type: scalar
100


# name: n_samples
# type: scalar
1





# name: <cell-element>
# type: scalar struct
# ndims: 2
 1 1
# length: 8
# name: A
# type: scalar
2


# name: X
# type: scalar
8


# name: Y
# type: scalar
2


# name: Z
# type: scalar
2


# name: lambda
# type: scalar
0.25


# name: n_iter
# type: scalar
100


# name: horizon
# type: scalar
100


# name: n_samples
# type: scalar
1





# name: <cell-element>
# type: scalar struct
# ndims: 2
 1 1
# length: 8
# name: A
# type: scalar
2


# name: X
# type: scalar
8


# name: Y
# type: scalar
2


# name: Z
# type: scalar
2


# name: lambda
# type: scalar
0.5


# name: n_iter
# type: scalar
100


# name: horizon
# type: scalar
100


# name: n_samples
# type: scalar
1





# name: <cell-element>
# type: scalar struct
# ndims: 2
 1 1
# length: 8
# name: A
# type: scalar
2


# name: X
# type: scalar
8


# name: Y
# type: scalar
2


# name: Z
# type: scalar
2


# name: lambda
# type: scalar
0.75


# name: n_iter
# type: scalar
100


# name: horizon
# type: scalar
100


# name: n_samples
# type: scalar
1





# name: <cell-element>
# type: scalar struct
# ndims: 2
 1 1
# length: 8
# name: A
# type: scalar
2


# name: X
# type: scalar
8


# name: Y
# type: scalar
2


# name: Z
# type: scalar
2


# name: lambda
# type: scalar
1


# name: n_iter
# type: scalar
100


# name: horizon
# type: scalar
100


# name: n_samples
# type: scalar
1







# name: PU
# type: cell
# rows: 1
# columns: 5
# name: <cell-element>
# type: matrix
# rows: 100
# columns: 2
 0.4866807411288497 0.5111669547588549
 0.5809447480823539 0.5111669547588549
 0.5483222757917502 0.5216248961989531
 0.5480091870134558 0.4853935880438877
 0.5607721417176709 0.5141606658032163
 0.4968674920520315 0.5784243399576759
 0.4922763306500717 0.4415535803601105
 0.6033765806612518 0.4415535803601105
 0.4787119123623851 0.4314521557228042
 0.4114555594792746 0.545915238701477
 0.4411733750138055 0.5793540701554922
 0.4850038919224033 0.5093636018796374
 0.5917449199299829 0.5100436114356413
 0.5878945851815657 0.5733584766646702
 0.4595985033151928 0.5350056224139011
 0.5211129770167208 0.5588381847190897
 0.5402839273324078 0.5614934873523223
 0.5677873995794617 0.5703503918367342
 0.5752128007467936 0.5694130210631841
 0.5269534686335887 0.5804810009404678
 0.5355431813424156 0.5549058420708493
 0.5716187059600192 0.5635858085002133
 0.5233553800512879 0.5853730743235042
 0.581720101561542 0.5973492872328567
 0.572543856877464 0.5741811298318801
 0.5487566686855786 0.5878872500398776
 0.6104651300023942 0.5974306310297224
 0.4294421341058791 0.5841213308994175
 0.5584065266609839 0.6027404970064527
 0.4312666533620683 0.579764950688477
 0.5645749835390317 0.6063886677130194
 0.6152493364485784 0.5899868165185645
 0.5756883324398043 0.5835118672760101
 0.5599473393774193 0.6167901041846221
 0.583579658350837 0.6044315168217659
 0.5782396795643662 0.5906912434054178
 0.613952188062095 0.6080531678972375
 0.5543054679995454 0.5970428120489767
 0.6041551903851079 0.5797077231475601
 0.6028134268840647 0.5913706460101619
 0.3912176894851283 0.5995062239513653
 0.589038282521539 0.588173038378469
 0.4717965048377336 0.6030455824401992
 0.5245525666809765 0.6110775299684015
 0.589364951561927 0.6190557606192711
 0.5350806971426154 0.6223780810412016
 0.5845804241651491 0.5986691083976462
 0.5652939555947666 0.5911615946098854
 0.5262022080494942 0.5999593750206854
 0.6003895038659516 0.5897377942897356
 0.5791519483531524 0.5819527649034789
 0.5948074188391053 0.60566031031471
 0.5945025202153511 0.5992030778662444
 0.5951129638536276 0.5952550492344875
 0.5400270755685626 0.5942915594966706
 0.5875857817410169 0.5977911881452507
 0.6537144187704745 0.5981292897062462
 0.6238826423492491 0.5893047855862231
 0.4610940403727958 0.5873708433689766
 0.5963282224340938 0.6068771397577626
 0.5787522648801312 0.6200304435934498
 0.5321883638481161 0.6034164194144884
 0.6167501260929527 0.6104026541789189
 0.6431800129519474 0.5966450629450439
 0.630669098837229 0.5928705951330796
 0.6122109204986917 0.5814542747317719
 0.5163330278865194 0.5851722641827209
 0.5803546001540085 0.5941918236234732
 0.5652939555947666 0.575661134758197
 0.6496763532731936 0.5832094188809519
 0.5377015943446691 0.5916304246136267
 0.5506257810172218 0.5741665675185053
 0.5927817621348352 0.5806330449217705
 0.5756932553513431 0.5878957078168034
 0.5882213883747471 0.5804948971816309
 0.6202728202673857 0.5841887031322798
 0.5929457930312071 0.5934658945502026
 0.5332290955606355 0.5691924282657018
 0.6158810074055232 0.5887892685281476
 0.6174396121497266 0.5780970043676655
 0.5695312799535194 0.5832342118082529
 0.5700301353399644 0.5887785878123131
 0.621219301366526 0.5919953779010062
 0.61578967059329 0.579924550523381
 0.5963558382795419 0.5660064975996114
 0.5715458033361597 0.5758999875906464
 0.5964686264404977 0.5869973335914209
 0.5148115206707573 0.5694089185596415
 0.6050791038975329 0.5867637018045064
 0.6243714493682808 0.5867937159576846
 0.5817535799839262 0.5832063796706008
 0.6188653104823224 0.5744955830664654
 0.6285409853796845 0.5748409556396834
 0.6005880742474184 0.5709944080057333
 0.5852757131557592 0.5829268810152302
 0.5826440351320124 0.5790089113743712
 0.5660351759948744 0.6012855302958846
 0.6174396121497266 0.5845748869556053
 0.6351875662676109 0.5959879398423283
 0.5989369938819357 0.5942868004712241



# name: <cell-element>
# type: matrix
# rows: 100
# columns: 2
 0.5074603804024017 0.4789217175583131
 0.5359187789127194 0.4748900497699878
 0.6010580933856726 0.4368302386130146
 0.5049632067609083 0.4819420516992876
 0.4896918046609585 0.5389148381886026
 0.4243232812317788 0.4174648068358466
 0.5386717077567214 0.4963944639081661
 0.5107026410034855 0.4886435964694625
 0.5581707135181593 0.4208311769909239
 0.4799522738970594 0.4943368900701643
 0.4331581492428006 0.4239949434734052
 0.4139718561606802 0.5078352792277846
 0.413629980324527 0.4520587453521214
 0.3930302900959271 0.4959382176417462
 0.4090476282806322 0.5187050617971234
 0.4538324094966739 0.5368511278367761
 0.5218596211593136 0.4912428492031879
 0.4940102166825337 0.498491257474916
 0.4364823749229261 0.4879040685643051
 0.4773129907804457 0.5363775573073215
 0.4164206437468304 0.5467192859155398
 0.5616932538861943 0.4956349188898697
 0.5294341899478094 0.5081708007655887
 0.4820795492094025 0.5688947813351081
 0.4312664844064644 0.5040050448256849
 0.4503823594073857 0.521964504992759
 0.4917206468926373 0.5767957388840759
 0.3808292040488663 0.5308376529769182
 0.5045227366898865 0.5320236329565861
 0.536029938665783 0.6053009504168596
 0.4639646741558625 0.6044953169180415
 0.4903495840605772 0.6038768164276455
 0.4456758059685764 0.6101894874122179
 0.5041331075283163 0.6237436002940902
 0.5870077378311589 0.6355764315463424
 0.4888880547683648 0.5981138824846348
 0.5963891403383632 0.6394934417639258
 0.5653521183807791 0.641428748917129
 0.5257458887173924 0.6266701776187572
 0.6047151901358971 0.6224140036915108
 0.5282564661079285 0.6155758791375314
 0.552933447342573 0.6179411476178308
 0.5464752605085905 0.6372050938545398
 0.5652939555947666 0.626959157835454
 0.6117578725121304 0.6363428223741023
 0.5679819540395018 0.6202381695124332
 0.5554273292725085 0.6403779188263313
 0.5355263621346045 0.6193811353779484
 0.5348172167526269 0.6324478418430448
 0.4964440343154303 0.6259794431358213
 0.5199152962018349 0.6383353350947896
 0.561084245449138 0.6176091833388466
 0.6311062426388463 0.5959315487523034
 0.5507388560335909 0.5770546977324845
 0.6250877830814445 0.6208760409578558
 0.5983549123826741 0.6270144674283555
 0.5731330461561741 0.6281535999572238
 0.5240556160972275 0.6205970205625585
 0.6040663589673998 0.6121302744370125
 0.6129231007402642 0.6224004686301655
 0.5239585802867206 0.6171136747596484
 0.5847639540553866 0.6125454543182501
 0.5134080046652427 0.5962731905709663
 0.5712689969598028 0.5920568483413503
 0.5391017060304303 0.6154754552348394
 0.4739216969037383 0.5976274013083603
 0.6268721197083288 0.6391340229615353
 0.5804448116845492 0.6342931742149902
 0.5556823683027172 0.6095326986233999
 0.448280656750071 0.6063501267918222
 0.5743279703357326 0.6396262496856311
 0.5562482352801672 0.6371180262999149
 0.5566733262816203 0.6307599216958817
 0.6149780836380158 0.6100441161506881
 0.5913726773311259 0.624361548374772
 0.4724255530069794 0.6083576699361467
 0.4701397849978901 0.6152996913921892
 0.5882843611803147 0.6282166954387595
 0.4905614603714312 0.6141317634262234
 0.5214120562499307 0.6154894088210244
 0.5953976069581028 0.6373354650978728
 0.5689528095884273 0.6362374270571128
 0.5696474547310427 0.6373648491202968
 0.5977906992557473 0.6170704981031403
 0.6415722855929252 0.6335774147234515
 0.590529765734602 0.640524568421073
 0.6066238651520401 0.6371911482562899
 0.5519827123398788 0.6349338184069735
 0.5329763036600657 0.6232078512251055
 0.5431017301111434 0.6065372224417348
 0.586330413754135 0.6399079673671673
 0.5626011975993421 0.607648019766444
 0.4953207376958078 0.6157588645026727
 0.5251676042848389 0.5990352627193614
 0.5703760497042342 0.6415388431355457
 0.6271631683390171 0.604351636522844
 0.5063544908119354 0.6188369550867513
 0.5125768967841967 0.5626045257643363
 0.3896774473940569 0.6276049569737243
 0.4252422036229166 0.5952859476481384



# name: <cell-element>
# type: matrix
# rows: 100
# columns: 2
 0.548298234720666 0.5187968280726386
 0.6259406267107356 0.5192839948989875
 0.5586264391812955 0.4091288863857852
 0.4617624808264996 0.4534502048587278
 0.5253606262093077 0.4203688142299687
 0.5174009761820169 0.4209409086101931
 0.4332415281024384 0.4006760177254338
 0.4563238503100827 0.4480152967569972
 0.4138722014549941 0.4253757556587676
 0.6038151011827593 0.4369167003513507
 0.4374710064314109 0.4179109391095929
 0.4638801138923445 0.4061423460968524
 0.4721139872162947 0.4214210638223114
 0.4874283491275802 0.4022292649825664
 0.4413567670411691 0.388840345140396
 0.4702344665564815 0.4131645653172396
 0.5254990160021642 0.409243536693227
 0.4860625702669895 0.3888410940778539
 0.4621233657824663 0.3768886732530277
 0.4957353438058333 0.4074942239089978
 0.5699674597588447 0.4272160878662954
 0.5701613648908975 0.4354616073656487
 0.4983210009558345 0.3878887562369964
 0.4351070084348216 0.3928066732584378
 0.5631848744004382 0.3965320553572943
 0.4484235384216689 0.4181180083220621
 0.4736573209017134 0.430924325706543
 0.6133441768666839 0.4147348941143221
 0.5325864080278657 0.4227257165650076
 0.4289389997870505 0.4364732599171292
 0.5815101249083454 0.408088226857189
 0.5041010664078733 0.435324817655428
 0.5346226539249422 0.4320234689233731
 0.6090866818960198 0.4279366708340492
 0.4354426992815358 0.4451921695627713
 0.4343743282760383 0.4192285548699773
 0.4332660745593174 0.4207079872541024
 0.5679274464823634 0.4106928148941151
 0.4236314079840027 0.418342015417178
 0.4475523443978854 0.4128634940205788
 0.4534661261236116 0.4253094819818526
 0.4952719466777272 0.4024406302062601
 0.5857973775174563 0.414348048741776
 0.4201406665164237 0.3945131752686765
 0.4574311479001952 0.4154235206793042
 0.4503854024274651 0.4051154162884677
 0.6324866131488437 0.4010313082334981
 0.4499088593707369 0.3920553296513012
 0.4197962675777017 0.403670939640661
 0.4523434581508913 0.4178237780747532
 0.5645615188850135 0.4154589269893982
 0.5367843557566525 0.4235364888504808
 0.4407618682238477 0.398455058885654
 0.5296220202555312 0.4084214075103951
 0.4506537169191835 0.4170783173795357
 0.445077938225699 0.433387224954807
 0.404076130183524 0.4176582441265407
 0.4286146729243544 0.4140082682356327
 0.5834864095381963 0.4216244510452379
 0.4682924612843816 0.4271816474087226
 0.5860885342744917 0.3946276619933871
 0.5815533877014357 0.4132056662664652
 0.4583489068628027 0.4070699964557426
 0.4841193324213336 0.4107473826843582
 0.5509848651138494 0.3993622485539718
 0.5468187344724745 0.4334476207327902
 0.6375687474303262 0.4189922809052247
 0.4670211760656986 0.4179047417824336
 0.4535372019957892 0.3847034550785501
 0.5588315932614134 0.3857758584053056
 0.4592300775650188 0.4283657343436207
 0.5755173969988754 0.4003713606109534
 0.5781268075568319 0.433748978607858
 0.4640525712256716 0.4052655534508097
 0.4629295313581288 0.4072466472520523
 0.4435354383467934 0.3911796189122213
 0.4546218162225224 0.4335512449017471
 0.5261751225991361 0.4045110586125283
 0.4644571889687721 0.3936824522357818
 0.5975718467668386 0.4260361460227949
 0.4509297844082433 0.4087020531541937
 0.5804495525374729 0.3933307299828983
 0.5449960076833538 0.4208668143408226
 0.5009778478685574 0.4227366615821602
 0.6067520252323994 0.4083209162318691
 0.5883788112532501 0.4238299519925561
 0.5736148393718028 0.3933685861303191
 0.5475902650668781 0.4376882331002573
 0.5066803671566895 0.4048682190760192
 0.5825767925719484 0.4182117463788624
 0.6039224966726989 0.3784797181776708
 0.5971044530967474 0.4271404906964942
 0.4463471335527557 0.4222579074223459
 0.5065831374665701 0.4002676872288314
 0.6149127391653276 0.3829070996632677
 0.4799481956563665 0.4270835042470228
 0.4154511586665013 0.4292959606591217
 0.5869695203101762 0.4165041710286338
 0.5042304494601135 0.4171841183471608
 0.6209975127447542 0.4242886491350086



# name: <cell-element>
# type: matrix
# rows: 100
# columns: 2
 0.5252765209817895 0.5322036096552637
 0.4135729631776933 0.5005291840582083
 0.5454457039901295 0.5136381116027824
 0.4411541981904041 0.5229100284031638
 0.5082114126904452 0.556444141889898
 0.5297334074598071 0.5500342992188157
 0.5049489326431287 0.5346601373156152
 0.5463613876371688 0.5490685732865033
 0.5748815892073537 0.5488906719456659
 0.5826969469698244 0.5698481761548099
 0.576078655689338 0.5673686082835536
 0.4607802965584151 0.5558278303770458
 0.5501427883241023 0.5719558348731407
 0.5646736697764098 0.5816557253574515
 0.4328765107536884 0.5877708953670759
 0.5383485723925736 0.5713605073870223
 0.4803770104180448 0.588919509597705
 0.5686188455903826 0.5893741722464565
 0.522643582129743 0.5774574309125601
 0.5450870746752522 0.58039268067719
 0.5739524243611323 0.580074873847697
 0.6117656145453387 0.5889690842925129
 0.5884512980990744 0.5919524028873374
 0.5228609055714976 0.5979494875724174
 0.5553351087479154 0.5956971837481472
 0.5835793562531693 0.5882751200615631
 0.5518391083110339 0.5783831925475889
 0.55544457975129 0.5986210476692921
 0.557953986695593 0.6051895043393156
 0.5724595331021139 0.5933895224008918
 0.5596272287879642 0.6054104821488571
 0.5247355176026042 0.5890279741195118
 0.5939861791455204 0.5916486676822037
 0.5822804446287302 0.5989968328684815
 0.492746200636364 0.5867675808894212
 0.5901461131370028 0.5872498127369038
 0.5511400468975973 0.601589787651348
 0.5829343499710302 0.6239181013256131
 0.5307625708049054 0.6064405097411493
 0.5384194161797456 0.6147094253721672
 0.5910904885355772 0.5993648131348898
 0.511012782049954 0.5930972237525023
 0.5469843773041441 0.5905934443330816
 0.6020098221841022 0.61087231535625
 0.6076501410832169 0.6038939919095853
 0.5741066527109401 0.602351231438872
 0.5342547803158764 0.6232483183726997
 0.5628073273230013 0.6116620639944519
 0.5104857540441736 0.6208822630187565
 0.5809838646026111 0.612428831257989
 0.4457788368047052 0.6168585875326363
 0.5443430482793915 0.6219342898689875
 0.5721019760093962 0.6036499757853474
 0.4991069214321327 0.6164025561678822
 0.608467446576198 0.6164272601569896
 0.5356352436192727 0.6180050103793406
 0.5823023704097928 0.6064725163491654
 0.5776652815241263 0.6162176643071104
 0.5887281643278365 0.5944293613673656
 0.5727457290610455 0.610569062103246
 0.5791400356208981 0.6165774082904826
 0.5176573257115092 0.6043752711688177
 0.5592269649772247 0.6070055736937656
 0.5803476587163046 0.6083666569216699
 0.5638377693421441 0.6228665472605961
 0.6020253863587991 0.6026180788240638
 0.5957225110431722 0.6111312138021456
 0.5252520195447912 0.5965939885132112
 0.6217258153380086 0.6110725933531664
 0.6245092050640338 0.6143204977705724
 0.5149903921979868 0.6067928607502762
 0.6126380973014733 0.6093090632676303
 0.5974665161763718 0.6063804954213514
 0.5695564146879473 0.6077805647653087
 0.5588091401525316 0.621197096146889
 0.5684569263467316 0.6107431801725772
 0.5093890625811927 0.5954234777995859
 0.5251578466704453 0.6205704824605778
 0.573267829192231 0.609642244995717
 0.5419353521506878 0.6122721792090908
 0.5802606405132777 0.6205125123938332
 0.6113507160245708 0.6092841385373671
 0.550407759844485 0.5966419507694178
 0.6102606585978455 0.6051705807702312
 0.5311643760703187 0.6067952301921264
 0.5609223846457397 0.6074551443061482
 0.5716305349176617 0.5952976274291595
 0.5405416278052892 0.618488845240286
 0.5826838682894592 0.6100125268216781
 0.5853956207968687 0.61737031983228
 0.5971433810520146 0.6064899343327205
 0.5268308309738788 0.6044737075815999
 0.5435585850128912 0.6158367988662313
 0.5617055215087992 0.6124570913929152
 0.5046299601737484 0.6062295350579172
 0.5327570626969864 0.600346362156897
 0.6142667913071467 0.6254403504580488
 0.5442823315365064 0.6197266454170244
 0.5408359918807322 0.6053991093461722
 0.5795019449907101 0.6173371390767377



# name: <cell-element>
# type: matrix
# rows: 100
# columns: 2
 0.5178394750748641 0.5229501900580209
 0.4992210529080927 0.4919474455776155
 0.499940457010725 0.4937056855204833
 0.4905300012516691 0.4937056855204833
 0.4968044447593045 0.4973573379548518
 0.4972316657629343 0.4971043560534874
 0.5131351924230577 0.4960806090146978
 0.5025088879482377 0.4962050010928082
 0.4968380583014415 0.496909202789215
 0.5024498738281011 0.4968549732778575
 0.5121326174853309 0.4968013410741067
 0.5091187546867407 0.4967744135599963
 0.509410245888546 0.4967109046476094
 0.5072718969399215 0.4968934869856653
 0.507687234887608 0.4990626242189006
 0.5093982751210604 0.4989536541437388
 0.5085593998743323 0.4990421868037531
 0.5073178085273689 0.4961423195682698
 0.5107639480950387 0.4956450002475022
 0.5113190574966965 0.4956149207628403
 0.5065951810680469 0.4955153317184223
 0.5067493062506674 0.495562259881134
 0.5078226247433544 0.4953450914202698
 0.5036138535161945 0.4953706499486217
 0.5019027840261443 0.4949982220532361
 0.5038924380893823 0.4949350212864182
 0.5045575995530291 0.4949927075442248
 0.5050111245894722 0.4949683217519443
 0.5040394521418621 0.4958149503639168
 0.5033122261651948 0.4956341857450384
 0.504635208274787 0.4950493369168782
 0.503305098603954 0.4950255211047914
 0.5025030098460582 0.4950215578521819
 0.5023828102210635 0.4950204201267687
 0.5028859891788412 0.4950218259747089
 0.5026538187617214 0.4949741719032233
 0.5025763068059068 0.4949812617045135
 0.5022490952433323 0.4950694846435464
 0.5024423099087109 0.495669305395746
 0.5020342317423376 0.4957323101052131
 0.5026569190199435 0.4954326038208719
 0.5025378380992545 0.495416104652538
 0.5032211249247702 0.4947323951405066
 0.5028554369464492 0.4939627450921966
 0.5029404513189948 0.4942966603459133
 0.5029571760584051 0.494782256745587
 0.5027637833233491 0.4948960872517409
 0.5030808453269625 0.4961044985547942
 0.5026669777881971 0.4977204034940786
 0.5025571375981509 0.4928792314423657
 0.5023137584801736 0.4951793112518383
 0.5027932858543642 0.4954536365709015
 0.5024411614950082 0.4956100447037146
 0.5031304794187831 0.4958730889938378
 0.5027734661891349 0.4957521070244476
 0.502881013616688 0.4953460555165306
 0.5026304714054464 0.4953373350391336
 0.5036593294414345 0.4952351918449335
 0.5033433969106837 0.4948549896819227
 0.5032681771500283 0.4945860630479006
 0.503178738165544 0.4953109981904858
 0.5031926916013958 0.4954643491454476
 0.5033153452620965 0.4953578600936703
 0.5032989447896326 0.4946867038281876
 0.5031946603044406 0.4948908080836195
 0.5032432074649457 0.4948475934842261
 0.5033781464484638 0.4949666260158219
 0.5032837340173102 0.4960463078745249
 0.5033382980453304 0.4957224845523406
 0.5032965116004027 0.4967213705769863
 0.5031445351680447 0.4967009026109743
 0.5031160909222115 0.4976377552652332
 0.5032083106058082 0.5001789793792799
 0.503177141348614 0.5021051374383841
 0.5031753653956813 0.5021445921856812
 0.5031799791402769 0.5025031975989327
 0.5031756695260866 0.4998159876408
 0.5032071452228111 0.4994282615810651
 0.5031806523886707 0.4990811153017243
 0.5032015455030228 0.4989593020759669
 0.503185986411685 0.497755833175997
 0.503177153502065 0.4971105741164569
 0.5031643523884256 0.4957208007750675
 0.5031379211202773 0.4955021661655162
 0.5031144750611994 0.4954150351830451
 0.5031407688622431 0.4953772192926596
 0.5031884656581798 0.4966039525695563
 0.5032090133794117 0.4965214516826606
 0.5032264380913725 0.4967762636323189
 0.5032175364090138 0.4967569568053773
 0.5032270587494203 0.4967330675961349
 0.5032113502911574 0.4972179450495417
 0.5032352508471218 0.4971605741146338
 0.503199408534092 0.4972668201285919
 0.5031900883383555 0.4971680441979108
 0.5031846422949618 0.4970392865654796
 0.5032073672813259 0.4971075016702702
 0.50320343536262 0.4970934865389403
 0.5031940349628335 0.4957496200321067
 0.5032118196996551 0.4956934657416638





# name: PV
# type: cell
# rows: 1
# columns: 5
# name: <cell-element>
# type: matrix
# rows: 100
# columns: 2
 0.4866807411288497 0.5111669547588549
 0.5809447480823539 0.5111669547588549
 0.5483222757917502 0.5216248961989531
 0.5480091870134558 0.4853935880438877
 0.5607721417176709 0.5141606658032163
 0.4968674920520315 0.5784243399576759
 0.4922763306500717 0.4415535803601105
 0.6033765806612518 0.4415535803601105
 0.4787119123623851 0.4314521557228042
 0.4114555594792746 0.545915238701477
 0.4411733750138055 0.5793540701554922
 0.4850038919224033 0.5093636018796374
 0.5917449199299829 0.5100436114356413
 0.5878945851815657 0.5733584766646702
 0.4595985033151928 0.5350056224139011
 0.5211129770167208 0.5588381847190897
 0.5402839273324078 0.5614934873523223
 0.5677873995794617 0.5703503918367342
 0.5752128007467936 0.5694130210631841
 0.5269534686335887 0.5804810009404678
 0.5355431813424156 0.5549058420708493
 0.5716187059600192 0.5635858085002133
 0.5233553800512879 0.5853730743235042
 0.581720101561542 0.5973492872328567
 0.572543856877464 0.5741811298318801
 0.5487566686855786 0.5878872500398776
 0.6104651300023942 0.5974306310297224
 0.4294421341058791 0.5841213308994175
 0.5584065266609839 0.6027404970064527
 0.4312666533620683 0.579764950688477
 0.5645749835390317 0.6063886677130194
 0.6152493364485784 0.5899868165185645
 0.5756883324398043 0.5835118672760101
 0.5599473393774193 0.6167901041846221
 0.583579658350837 0.6044315168217659
 0.5782396795643662 0.5906912434054178
 0.613952188062095 0.6080531678972375
 0.5543054679995454 0.5970428120489767
 0.6041551903851079 0.5797077231475601
 0.6028134268840647 0.5913706460101619
 0.3912176894851283 0.5995062239513653
 0.589038282521539 0.588173038378469
 0.4717965048377336 0.6030455824401992
 0.5245525666809765 0.6110775299684015
 0.589364951561927 0.6190557606192711
 0.5350806971426154 0.6223780810412016
 0.5845804241651491 0.5986691083976462
 0.5652939555947666 0.5911615946098854
 0.5262022080494942 0.5999593750206854
 0.6003895038659516 0.5897377942897356
 0.5791519483531524 0.5819527649034789
 0.5948074188391053 0.60566031031471
 0.5945025202153511 0.5992030778662444
 0.5951129638536276 0.5952550492344875
 0.5400270755685626 0.5942915594966706
 0.5875857817410169 0.5977911881452507
 0.6537144187704745 0.5981292897062462
 0.6238826423492491 0.5893047855862231
 0.4610940403727958 0.5873708433689766
 0.5963282224340938 0.6068771397577626
 0.5787522648801312 0.6200304435934498
 0.5321883638481161 0.6034164194144884
 0.6167501260929527 0.6104026541789189
 0.6431800129519474 0.5966450629450439
 0.630669098837229 0.5928705951330796
 0.6122109204986917 0.5814542747317719
 0.5163330278865194 0.5851722641827209
 0.5803546001540085 0.5941918236234732
 0.5652939555947666 0.575661134758197
 0.6496763532731936 0.5832094188809519
 0.5377015943446691 0.5916304246136267
 0.5506257810172218 0.5741665675185053
 0.5927817621348352 0.5806330449217705
 0.5756932553513431 0.5878957078168034
 0.5882213883747471 0.5804948971816309
 0.6202728202673857 0.5841887031322798
 0.5929457930312071 0.5934658945502026
 0.5332290955606355 0.5691924282657018
 0.6158810074055232 0.5887892685281476
 0.6174396121497266 0.5780970043676655
 0.5695312799535194 0.5832342118082529
 0.5700301353399644 0.5887785878123131
 0.621219301366526 0.5919953779010062
 0.61578967059329 0.579924550523381
 0.5963558382795419 0.5660064975996114
 0.5715458033361597 0.5758999875906464
 0.5964686264404977 0.5869973335914209
 0.5148115206707573 0.5694089185596415
 0.6050791038975329 0.5867637018045064
 0.6243714493682808 0.5867937159576846
 0.5817535799839262 0.5832063796706008
 0.6188653104823224 0.5744955830664654
 0.6285409853796845 0.5748409556396834
 0.6005880742474184 0.5709944080057333
 0.5852757131557592 0.5829268810152302
 0.5826440351320124 0.5790089113743712
 0.5660351759948744 0.6012855302958846
 0.6174396121497266 0.5845748869556053
 0.6351875662676109 0.5959879398423283
 0.5989369938819357 0.5942868004712241



# name: <cell-element>
# type: matrix
# rows: 100
# columns: 2
 0.2689375322060664 0.2441261926194271
 0.1522476084895938 0.2042516846321386
 0.3013350914864452 0.2526677564552955
 0.3272397680016975 0.2511952871669912
 0.2404388637309264 0.2861524352750244
 0.2261902242846304 0.2727568097548773
 0.2415177536004725 0.2264416719378053
 0.2154853674602519 0.2825412314991458
 0.1946574216396113 0.2143484626895846
 0.2514038052360384 0.2756450028169178
 0.0476353998105889 0.2654914426997382
 0.2662672148088543 0.1971693330363264
 0.3045334099212565 0.2793004827371016
 0.2367325737844588 0.279030729464959
 0.2520969164525694 0.326570150910196
 0.2458313218644731 0.2529155207165888
 0.3263389809821275 0.2040755402703333
 0.2000531753364987 0.323811179840212
 0.2149892806207475 0.2909602178343061
 0.1237116368248652 0.3066404205196314
 0.236026770018885 0.2651124277819212
 0.3291949097976321 0.2481562644391669
 0.2322129939792948 0.2471962595124961
 0.2902917544697586 0.1891193220018537
 0.2521597822630344 0.2857999998065971
 0.1043069389393133 0.256214373278372
 0.1108923136909108 0.2609286110189197
 0.256649742930345 0.3309943801134809
 0.1262443447891151 0.2647102225172276
 0.1445637054160383 0.2421224719366945
 0.3045887075659906 0.2811610108304072
 0.2874108178616206 0.2817652524360373
 0.1850534321775509 0.244991841933264
 0.3430749395398315 0.1887146075003219
 0.2899113424398995 0.1822338831060485
 0.327533547397546 0.2940696465298511
 0.1542076125692235 0.1241387041295368
 0.1587012205835693 0.1258970535298517
 0.08869674568662617 0.1510215163244457
 0.1215103685559857 0.1418199028265164
 0.1724320413474718 0.1505088511086957
 0.05878419379151512 0.1424405650779911
 0.1083020856970547 0.1737974247087741
 0.1319009852674874 0.1538427011726533
 0.08304545315518896 0.1721553625144295
 0.1278062349839343 0.1371158692288083
 0.1195281016742463 0.1806568974620154
 0.1257976913840017 0.1536523729119748
 0.110166382182192 0.1635125080041731
 0.1225829713922007 0.1495281864346635
 0.09799611744574688 0.1762409439892294
 0.3214333808821846 0.1655130839449278
 0.1265416776472172 0.1620866919821312
 0.1696275238309001 0.143777303452217
 0.1503591259633107 0.1700371024608598
 0.1593311167199282 0.1543203367589149
 0.1317753925997233 0.16235409983893
 0.1952233717611153 0.1750116164748807
 0.1719955170765892 0.1635982329844732
 0.1869286573848737 0.1651156001208047
 0.1411102448997575 0.1637294673140849
 0.1922544371617337 0.1552917884218938
 0.167821475731089 0.165045871729223
 0.1405731414522094 0.1672606771370795
 0.2005487586592857 0.1423994799198614
 0.1457451044947701 0.1443687194346603
 0.1166965746594154 0.1779676631461308
 0.09328381882815207 0.1868572495431367
 0.1716239088272563 0.1872539453282272
 0.1207079403811673 0.1873049343662473
 0.1806956118844808 0.1867718065736369
 0.1233890986199248 0.1868119916517263
 0.1071590279483384 0.1869138569526675
 0.1610092630365036 0.1872457517385384
 0.1355544569174787 0.1764789344953065
 0.08915440202571562 0.1839812578362703
 0.2330192261643816 0.1871615504258933
 0.1981916922440029 0.1869546028233596
 0.3210489594283783 0.1871802621868881
 0.2249661973592729 0.1777361253252305
 0.3028606484998203 0.1852832095507085
 0.126327286570836 0.1868261000240264
 0.09619338836156088 0.1850635405770601
 0.2334332041281029 0.1841773100596217
 0.184698758581483 0.186713444705999
 0.2081273930207322 0.1833849069991317
 0.3765537247848135 0.1792047527783134
 0.2549362955416833 0.1838578657649914
 0.2569573401004612 0.1753829734507017
 0.2025120492192523 0.2028587713967621
 0.1934319924325875 0.1864103055675257
 0.3432682186056036 0.1958074428571976
 0.1429280755067725 0.1930644487177062
 0.1029256898165246 0.1759519157335884
 0.1241592001721334 0.1898886688239489
 0.1861573300053935 0.2010448190762774
 0.2637839543520976 0.1793602439324404
 0.2879266006048366 0.1912481741576958
 0.1883685114911157 0.173319490897103
 0.235717233450339 0.1685882155678143



# name: <cell-element>
# type: matrix
# rows: 100
# columns: 2
 0.1478552285481255 0.1325127406944973
 -0.2722526518744143 0.06825843602776147
 -0.0233356473988926 -0.06758081020431228
 -0.2203659931231625 0.04176217979517982
 0.1106394236497048 0.06920668703290148
 -0.04918920188042541 0.04663714081599499
 -0.2225285199813056 -0.1930672599218549