# Created by Octave 4.0.0, Wed May 09 11:36:22 2018 CEST <olethros@olethros-OptiPlex-9010>
# name: results
# type: struct
# ndims: 2
 1 5
# length: 8
# name: options
# type: cell
# rows: 1
# columns: 5
# name: <cell-element>
# type: scalar struct
# ndims: 2
 1 1
# length: 8
# name: A
# type: scalar
2


# name: X
# type: scalar
8


# name: Y
# type: scalar
2


# name: Z
# type: scalar
2


# name: lambda
# type: scalar
0


# name: n_iter
# type: scalar
100


# name: horizon
# type: scalar
100


# name: n_samples
# type: scalar
1





# name: <cell-element>
# type: scalar struct
# ndims: 2
 1 1
# length: 8
# name: A
# type: scalar
2


# name: X
# type: scalar
8


# name: Y
# type: scalar
2


# name: Z
# type: scalar
2


# name: lambda
# type: scalar
0.25


# name: n_iter
# type: scalar
100


# name: horizon
# type: scalar
100


# name: n_samples
# type: scalar
1





# name: <cell-element>
# type: scalar struct
# ndims: 2
 1 1
# length: 8
# name: A
# type: scalar
2


# name: X
# type: scalar
8


# name: Y
# type: scalar
2


# name: Z
# type: scalar
2


# name: lambda
# type: scalar
0.5


# name: n_iter
# type: scalar
100


# name: horizon
# type: scalar
100


# name: n_samples
# type: scalar
1





# name: <cell-element>
# type: scalar struct
# ndims: 2
 1 1
# length: 8
# name: A
# type: scalar
2


# name: X
# type: scalar
8


# name: Y
# type: scalar
2


# name: Z
# type: scalar
2


# name: lambda
# type: scalar
0.75


# name: n_iter
# type: scalar
100


# name: horizon
# type: scalar
100


# name: n_samples
# type: scalar
1





# name: <cell-element>
# type: scalar struct
# ndims: 2
 1 1
# length: 8
# name: A
# type: scalar
2


# name: X
# type: scalar
8


# name: Y
# type: scalar
2


# name: Z
# type: scalar
2


# name: lambda
# type: scalar
1


# name: n_iter
# type: scalar
100


# name: horizon
# type: scalar
100


# name: n_samples
# type: scalar
1







# name: PU
# type: cell
# rows: 1
# columns: 5
# name: <cell-element>
# type: matrix
# rows: 100
# columns: 2
 0.5412455264868404 0.5128868345613429
 0.5013726632390485 0.5117230613889354
 0.4533708705538483 0.5128334641309605
 0.4484367315393727 0.4925193964877334
 0.5565725052388226 0.4250447754372663
 0.5522150645000312 0.4671581595890717
 0.5438971246399675 0.4662976539363441
 0.4305637394682759 0.4395448036070617
 0.4858563109098389 0.4299013564738419
 0.6123076887793452 0.5179223386693691
 0.5849716473277869 0.4947793718614457
 0.5848065778848599 0.5236404470690343
 0.587243814968151 0.5057399613788488
 0.5517048877332819 0.5099946179448368
 0.5844830576186528 0.5217552793525018
 0.5945449082764701 0.5126871423470803
 0.6031539720477456 0.5025092746612154
 0.5473327437006321 0.5159576618555808
 0.5737445981361567 0.5297343175306283
 0.5593412872503952 0.5220726725654138
 0.5697234459034225 0.5157216055590936
 0.4932499652529225 0.5260518611284584
 0.6126080521473498 0.520291463302998
 0.6082413203236864 0.5282881770622564
 0.5707944547500248 0.5188208741677143
 0.6111123124463741 0.5282600809112119
 0.500490570534351 0.5204060935887094
 0.5531220594444108 0.5246801648463491
 0.6142215248468647 0.5198060570564068
 0.618674139353852 0.5451690382452354
 0.5153989059205422 0.5513229788627753
 0.6106397939144437 0.5556679148626049
 0.5020913858201946 0.5466025690474585
 0.5094053263430778 0.546240724012515
 0.5905264705750424 0.5482467263107499
 0.5844830576186528 0.5456401981185722
 0.4773626196750737 0.5455709911316428
 0.5959018349125164 0.5728234040334952
 0.502373540169826 0.5617866031566016
 0.5789698332978032 0.5692707096124308
 0.5840590549336869 0.5650325185338271
 0.4612595195404887 0.5701888398848489
 0.5055425539124098 0.5650806985295723
 0.5658316974038934 0.567688012209943
 0.5007692108488899 0.560540527224007
 0.6009339216349248 0.5658998175472617
 0.491725175461701 0.5633300933159187
 0.4881809263272789 0.5672891895054343
 0.6181261827325314 0.5658170884460296
 0.5921628286770566 0.5681855742787748
 0.5068520229550716 0.5635280393322477
 0.5295389998597835 0.5673546265086823
 0.5808600562365911 0.5696956173720232
 0.6196394377717774 0.5669585653069662
 0.5793347373035528 0.5626391237200217
 0.6261333979068409 0.5631533163162936
 0.5022371151207505 0.5692758393168961
 0.4870494265217185 0.5677378723910811
 0.5672672413473548 0.5665082174997296
 0.5813526701510883 0.5693446789236326
 0.6045651651067148 0.5585275992116507
 0.4883416531958532 0.5689559854373254
 0.5649172475609451 0.5709689340194318
 0.584108052403141 0.5657922554143199
 0.607803481147181 0.5684510513147231
 0.5134075289029901 0.5656121615308829
 0.5031493002499003 0.5587493404365843
 0.4875375198703361 0.5624380530916372
 0.4937536044660184 0.5677573360850532
 0.6097877152708139 0.5728488075707036
 0.4962243350066933 0.5625041840584648
 0.4642783591463183 0.5659803158721436
 0.493889082792823 0.5607024288631005
 0.4576391560019316 0.5656694670974428
 0.6149299016959463 0.5713439544603885
 0.4993760561123383 0.5611628831907584
 0.4427382859156849 0.5585340828265595
 0.493183100410039 0.5599609461843523
 0.4905443572523016 0.5740234078986097
 0.4946301830156258 0.5641121405339838
 0.4972797768742745 0.5664527816566034
 0.4469376026922555 0.5735414981683962
 0.4857583555413505 0.5600854043478297
 0.5591841187335688 0.5689053359168103
 0.4490887394911162 0.5714440997468829
 0.6023695890315657 0.5727939236699018
 0.5631952369442789 0.5660503371136972
 0.4699079932259326 0.562248459933687
 0.5667115258681537 0.5598108813012845
 0.5146311962886014 0.5669417424434934
 0.4924578698199787 0.5669841791404346
 0.4941018476406159 0.5749509815986582
 0.5098797965360112 0.5715059541431635
 0.4668080343851285 0.5698273648571913
 0.4621337403666395 0.5664374320087296
 0.4903304750097835 0.558371129557218
 0.5042303770088264 0.5616015529686543
 0.526481675517289 0.564561981460958
 0.4919793238289683 0.558371129557218
 0.5774583269189438 0.5629711366895125



# name: <cell-element>
# type: matrix
# rows: 100
# columns: 2
 0.5863834089784922 0.4702556288462889
 0.6113175730105043 0.5324888785952911
 0.5313085329179786 0.5659663542477823
 0.4877998431843945 0.5638397625763419
 0.4729305786884648 0.5424907006396348
 0.4561495504087807 0.5961441713712999
 0.5552184883043709 0.5718277897297273
 0.5891912513023927 0.581611710334862
 0.5316653258895507 0.5414728151650219
 0.5825324726055794 0.5671566818393785
 0.5981896914739619 0.5759868030565751
 0.5976888377124342 0.5874214161976193
 0.6207400357338314 0.6187489574844257
 0.5705306997476209 0.6181760716404638
 0.5845843230789508 0.6213159572360761
 0.6216188560499997 0.6233372214674124
 0.6110309662671261 0.6263245119373894
 0.5072899040942053 0.6241910583093723
 0.5557408470304396 0.6167072145906957
 0.6237324930546708 0.626476221725937
 0.5840292522006506 0.6298643243535629
 0.5785820710199099 0.6182999671082882
 0.5996237518350206 0.6267894379055745
 0.562726255444038 0.6230618621165819
 0.6295921859353478 0.6146472751450521
 0.4951742624443605 0.6297120999045216
 0.5891823776013928 0.6262149981402342
 0.5655743538923516 0.6192502310939024
 0.5864136712151782 0.6259488580815484
 0.5657824374315836 0.6146536027222985
 0.6139298298103048 0.6197433120930097
 0.6207246508132487 0.6162284265310758
 0.4879679628533681 0.6181558727728952
 0.5980067965412094 0.6144052934406237
 0.5968586941916018 0.6208248211715657
 0.5554825497553298 0.6186245926657692
 0.564935113038241 0.6202434162795654
 0.5849332309205351 0.6198651641395666
 0.6319998329256915 0.6286795821773936
 0.5462083692419433 0.6266935742998916
 0.564439435694884 0.6205326956131914
 0.5734539212757951 0.6281217293890443
 0.5879064510575595 0.6270841296115744
 0.6137937841325692 0.6290384291369959
 0.6302206685967059 0.616630485310075
 0.5981099399040762 0.6203590683487546
 0.6095210855845691 0.6164671445645181
 0.6134287647800301 0.6207939179540638
 0.5485647263802619 0.6188710392411867
 0.5840245225145448 0.6147121680089038
 0.6149148767668328 0.6146192394867969
 0.6080697209962845 0.6264527205375091
 0.5788562600382309 0.6216873368080671
 0.5880805255250798 0.6183649616469203
 0.6259315267880255 0.6170220919343937
 0.5961522639019636 0.6168526342260799
 0.5679746902426915 0.6190175648302361
 0.5948744217743988 0.6186419913490514
 0.5039119387713881 0.6214047933626768
 0.5801030106396878 0.6195277601928617
 0.5196991516351476 0.6252276930143778
 0.6192140044674075 0.6202692471181352
 0.5446161703228798 0.6201034281561131
 0.4808492003045777 0.6208345788738316
 0.58291145716236 0.6204033714241497
 0.5300880414883083 0.6169597279703081
 0.58291145716236 0.628525515058093
 0.5809889143397284 0.6174018994730351
 0.5829074705731088 0.6157084770138623
 0.5640924076340306 0.6168974079181705
 0.5716140092416863 0.6193537787386943
 0.5874510425110449 0.6176177336775426
 0.5811430226025781 0.6233203454091942
 0.6026175460823503 0.6171109548763217
 0.5810050956401988 0.6147536032626845
 0.608947393333385 0.6226415353396114
 0.5998936571278479 0.6209731604767625
 0.6155301381568909 0.6243653150887846
 0.547461924469966 0.6135278114582156
 0.4893558959803528 0.6135278114582156
 0.5667092382866653 0.6135278114582156
 0.5370652910916939 0.6135278114582156
 0.608458530635039 0.6135278114582156
 0.4910255026559598 0.6135278114582156
 0.4691827833065457 0.6123120482117865
 0.6244878301332913 0.6135278114582156
 0.6137053933639612 0.6135278114582156
 0.5968515285984135 0.613545616783079
 0.6212237103894199 0.6112551766650536
 0.5261537368692325 0.6135278114582156
 0.6140340920910354 0.6128729842964351
 0.5769867345541745 0.6135278114582156
 0.4985435547328798 0.6135278114582156
 0.5870139623345851 0.6135278114582156
 0.6304402662834832 0.6135278114582156
 0.5012271301676716 0.6135278114582156
 0.562330291455883 0.6135278114582156
 0.6111841298054157 0.6135278114582156
 0.536978810784504 0.6135278114582156
 0.6109202433960047 0.6135278114582156



# name: <cell-element>
# type: matrix
# rows: 100
# columns: 2
 0.5276394652610595 0.5404775615752793
 0.4731128873536111 0.5404823596587653
 0.5838533612268701 0.5287371169648738
 0.5113623690152974 0.4765914758631429
 0.5445879066136078 0.4916210599594648
 0.4937404141238736 0.4712036257656894
 0.6319998329256915 0.5730951645334589
 0.5951591416915833 0.5797882368569693
 0.5692503392514677 0.5919197939633882
 0.4965102456690816 0.6078625958116729
 0.5784343215416969 0.6009866641156604
 0.5043346488558654 0.6092751233096642
 0.5601906277047555 0.5896831927586955
 0.5130817125018095 0.5932922324608424
 0.5178399728097712 0.6062784952942868
 0.4852911960172868 0.6080846492242281
 0.5355061682515563 0.6181975606536558
 0.482526749852506 0.6112026686958287
 0.5527013620994002 0.6031845332451156
 0.5806015124734187 0.6194514388360222
 0.4242273189094671 0.6188380465098144
 0.476009549969387 0.5939985330105293
 0.4802749260204097 0.6039069423716136
 0.575724193021143 0.5801268328269694
 0.5272162725528583 0.6026464499009266
 0.4678420412230239 0.5866136536304229
 0.5304533284565487 0.5962838144911674
 0.5868277151689287 0.5754058730611538
 0.4437867258874599 0.5742172492017682
 0.5419161758727045 0.5714061882604088
 0.5229220103655324 0.575903243018647
 0.4586681767982861 0.5685159951888114
 0.5493680093835708 0.5753496812067485
 0.5842492430377427 0.5702742396559884
 0.4930159792197719 0.5697119385461531
 0.5229273851712115 0.564029380688683
 0.4592843513038909 0.5638784720156282
 0.5604430531829563 0.5604673000030218
 0.4885493519055856 0.5599201149585108
 0.4415135813306418 0.5509344270015498
 0.4656910517082291 0.5514805187067402
 0.5196570154297125 0.5548970705126105
 0.5684136447880621 0.5741305888719778
 0.4774601427087757 0.5784915457987274
 0.5257941447721974 0.5701192294451495
 0.5194104855712534 0.5737245097688964
 0.516605800039267 0.5608304148266603
 0.5447325924223383 0.5678415733311226
 0.5179841582434895 0.5678220309114344
 0.484194547922763 0.553005419809966
 0.4440641449459277 0.5508311937680727
 0.5177297289370636 0.5581682499046704
 0.4412061492006022 0.5646651568230561
 0.5379018163141024 0.5557621453703061
 0.5329365314944702 0.5569797023901903
 0.4905314583534516 0.5502885577999572
 0.4821128745405921 0.5492034960583484
 0.5381542974834136 0.5527803061514029
 0.5552757508926667 0.5523376560227767
 0.5039234164552545 0.59891412443815
 0.5618353889161984 0.5836314342968464
 0.5599933312154427 0.5839206647388775
 0.4656252311635055 0.5904817812901408
 0.5111422477593434 0.5959778801084734
 0.5389721368104621 0.6110091804570278
 0.5363935045338561 0.5968421708215508
 0.4626318136251272 0.6010776010545628
 0.5268491074783843 0.6093967011168648
 0.5099487845072795 0.6012274562889143
 0.496543389162857 0.6024167581636712
 0.5028336100939427 0.5816015761044051
 0.5117584430178298 0.6133193261634079
 0.4955619953682218 0.5988246488794597
 0.5207609432264046 0.6040891138001371
 0.5484024766442156 0.6014292472080673
 0.5036285067647502 0.5978799049764958
 0.5137338393112281 0.6168109614143197
 0.4627556304797647 0.6088694115551692
 0.5742858500056667 0.6151978936738918
 0.5171348191323474 0.6069569937834149
 0.5486547080423336 0.5939481693693872
 0.5460823805725478 0.5958378566695929
 0.4892450446215242 0.5455324667647145
 0.4975430266349275 0.5966913994533742
 0.5370924654274662 0.5953026380996367
 0.5564975123494846 0.5962277827361564
 0.4908671318446777 0.5932736064039758
 0.5409995031081757 0.594337200600465
 0.5102316777216244 0.5882373695834806
 0.4964610135697229 0.5866244959776065
 0.5094872226452193 0.5956007685624299
 0.574522007762884 0.5966302392363014
 0.5391760413441985 0.588234927820493
 0.4881141367239142 0.585787837848982
 0.5715413592725235 0.5939853706668055
 0.4321917077245974 0.5914826314620377
 0.4643833971902851 0.5895753248429925
 0.4895404544871016 0.5839731493291913
 0.5237487921272234 0.5775497271206571
 0.5413099809932743 0.5868998698943634



# name: <cell-element>
# type: matrix
# rows: 100
# columns: 2
 0.5080912115150074 0.5114922752104991
 0.4176318189257498 0.5419329862651152
 0.5976297536354709 0.5175894003024055
 0.4184209287519778 0.5303855627578243
 0.4637194559569632 0.5332707904601974
 0.455093742264273 0.5260803525818547
 0.6105577289847973 0.5170236465391007
 0.5445901183373042 0.5455789996585099
 0.4315118414724892 0.5317905368741994
 0.5449957760861619 0.5170757419508809
 0.5580599845846153 0.5263658262552714
 0.5572846515517194 0.5660344532475436
 0.5475455550267256 0.5224089352631371
 0.5614646565953355 0.5430253524420944
 0.5936333864781451 0.519058173489124
 0.5457260728575106 0.5063752270257382
 0.5172806611656708 0.5004356181682007
 0.4446141108336382 0.5272092685513632
 0.4608372705255546 0.4998040976108591
 0.4733767573723388 0.5552036168145726
 0.5395268716084392 0.5216298211165213
 0.5330342049450273 0.5084630604129894
 0.5715370143993302 0.5053429353632009
 0.5304755791662386 0.5358551504823774
 0.5170373863353493 0.4314352341836716
 0.5971326286404468 0.4464137159174811
 0.61536858577182 0.4894302886485256
 0.6068831742031785 0.4842309846923749
 0.5761715092401033 0.4596904250754881
 0.5167892975127587 0.5243483107908257
 0.5268720476891666 0.4607487687825707
 0.4621475677589687 0.4790351589709251
 0.5400207754648149 0.5072857043226887
 0.5848167623102013 0.458184895244884
 0.543733801338106 0.490224218875476
 0.5738168194636815 0.4613628877107642
 0.5621196065823844 0.539971988814328
 0.591230912076553 0.5374488570658816
 0.5829347131531736 0.4943378560171463
 0.5055177459218287 0.5403248492489855
 0.5428276195726749 0.5412220157746929
 0.5530844405734414 0.514186920234862
 0.4553971829037463 0.5089510030081068
 0.5633571236204888 0.5329026256111107
 0.6129581989984091 0.51788647920064
 0.4319295190215011 0.5397567799113049
 0.6027487498883183 0.5449908226124573
 0.5056268993479156 0.5482422607907722
 0.530938237306214 0.5395994698733118
 0.4944576334464894 0.5429900513044885
 0.5173726720933052 0.5359959897995881
 0.56037056225318 0.541383058382485
 0.4770703551231462 0.5391266109184746
 0.5442024718216609 0.5414487453403003
 0.5656652328914377 0.5379003526915982
 0.4913711152815525 0.5374228482311671
 0.454382926025245 0.5310654271914732
 0.533050629534521 0.5422601362892894
 0.4993179406212778 0.5405125465003254
 0.5723130790739428 0.537516424256106
 0.5076849641926973 0.5371906403841152
 0.5454543647730381 0.5455927532574866
 0.5359743180250367 0.5378358872517289
 0.502352453792974 0.5353350706811403
 0.503102880059073 0.5444750707594593
 0.5706820655982117 0.5382538703772428
 0.5394694401901206 0.5362962071830658
 0.5209895997895491 0.5366708563000487
 0.5757349600636363 0.5343681696183231
 0.5095103570304826 0.5392587585970423
 0.5465671392602425 0.5396965705591592
 0.5667367307401451 0.5414976453061848
 0.47956160875735 0.534571048872542
 0.5941434232762688 0.5386573442700459
 0.5913655281132717 0.5396714113705622
 0.5439748399667776 0.5412027204403751
 0.475568178549148 0.5377005925254885
 0.5166820449194747 0.5374797363296544
 0.4889973450624948 0.5378619065083832
 0.4946816674809034 0.5358416589453443
 0.5558266002378915 0.5394150012513333
 0.5516344767512923 0.5347780375332624
 0.5741842317495157 0.5392795369911166
 0.5590023441004294 0.5356543725950885
 0.5857111531393161 0.5359508945573044
 0.5534505340843826 0.5285974984068796
 0.5432200987201615 0.5375612591633347
 0.5597062708032439 0.5407381871384594
 0.5841083819238346 0.5395369646272634
 0.49062183095367 0.540653516300577
 0.5229371779273917 0.5307313208218897
 0.5376945811396208 0.5375142269351668
 0.5729175250886547 0.5459949472678407
 0.5448829894742125 0.5277434074095325
 0.5392952879690555 0.5420303907984153
 0.550772917913588 0.5386788606611942
 0.5535137826581517 0.5335939901283183
 0.469889093228304 0.5385468431482464
 0.6085581643839897 0.5351305245240067
 0.5082327277054507 0.5319120539222529



# name: <cell-element>
# type: matrix
# rows: 100
# columns: 2
 0.5333794221799967 0.5435292088611279
 0.5513034105588016 0.5247939320586475
 0.5539616261568825 0.502245857145482
 0.5515210381997329 0.5104444750629429
 0.5525897658577085 0.512598258438398
 0.5045374800422928 0.5127106660374022
 0.4985374694363828 0.5126952243762748
 0.5025025120442672 0.5126664735815052
 0.4997640680429583 0.5096591717912988
 0.4993824959548272 0.5092052289279045
 0.4979512057094644 0.5090504032242629
 0.4961943768089588 0.5091622252707135
 0.4963269990890967 0.5091315089166252
 0.5045321185775596 0.5004862564939611
 0.5000555554976025 0.4985276763776398
 0.5004269474466519 0.4982085439073953
 0.4961195319750486 0.498097728302111
 0.4948321739223597 0.4979404426270206
 0.4945384465309351 0.4981753945182626
 0.495868550551859 0.498337196148866
 0.4957711769413644 0.4985191180444712
 0.4962547798417308 0.4997308844937935
 0.4978278393501772 0.4995945390286081
 0.4967767306155557 0.499649420179431
 0.4957727105843992 0.4991616100307374
 0.4953564688699394 0.4988655745740169
 0.4957479734949949 0.4990594784949156
 0.4960659738035552 0.5046731693416661
 0.4956668748234026 0.5056420331454383
 0.4962804051544834 0.5058094805912434
 0.4964737331799058 0.5083195470488342
 0.4967751174519809 0.5086836531316467
 0.4965714620480825 0.5086331038026343
 0.4966345742347987 0.5087833452131478
 0.4966493239778853 0.5087700464415384
 0.4964257837526482 0.5087539956800462
 0.4962672964401495 0.5076013942005784
 0.4965770337443263 0.5073709278822345
 0.4967282226348492 0.5050376405553723
 0.4965347741772339 0.5043767804279209
 0.4970652561434897 0.5041863954316415
 0.4970519992622832 0.5054566350269376
 0.4973107514138047 0.5056550649378426
 0.4971513666769339 0.5049083507286567
 0.4969314007732242 0.5046642067319335
 0.4970956573652112 0.5047689455587774
 0.4972747608269725 0.5055356434224245
 0.4971141880605626 0.5056082546825781
 0.4969666251241568 0.5055374466202971
 0.4970599210741096 0.5053693289168419
 0.4970640413343507 0.5048578151334902
 0.497031761190416 0.5047114318092861
 0.4969819841139447 0.5044793964607727
 0.4971669755777512 0.504617498308745
 0.4972709211658216 0.504736274898096
 0.4970387072461948 0.5045169368992616
 0.4969422497501588 0.5046135224115055
 0.4969613890211031 0.5051406544714339
 0.4969153704905221 0.5053167733004605
 0.4969220104708912 0.5054537962269824
 0.4969462352740013 0.5053640446684837
 0.4970454196637769 0.5052094000995787
 0.4970676415459784 0.5052277491407181
 0.4970838789248218 0.5053085658342069
 0.4970942066328466 0.5051469885115379
 0.4971232852557393 0.5050687495211038
 0.4970041957806579 0.5050807551632398
 0.4970644935756527 0.5049703403885946
 0.4970390866526369 0.5050701406765272
 0.4969762255048613 0.5051377412163043
 0.4970169572229988 0.5050640734822786
 0.4970431030701582 0.5052370721202882
 0.4970371729038557 0.5051909259720941
 0.4970232155948492 0.5057587373952375
 0.4971137738293169 0.5058052738184706
 0.4970763831358841 0.5057368803375101
 0.4970641047531983 0.5056250976314809
 0.4970937561963331 0.5056142936941865
 0.4971319418366367 0.5085752363871647
 0.4971196931381254 0.508567423345801
 0.4971198671708115 0.508558568314739
 0.4971387862892782 0.5086035648558909
 0.4971191511494263 0.5085582517789315
 0.49711343023878 0.5085462250874809
 0.4971640239913796 0.5079003502579577
 0.4971111482337398 0.5078482577908892
 0.4970977134048114 0.5078445118911119
 0.497118933278918 0.5080823007607845
 0.4971065304969883 0.5075744602697171
 0.4971203060387904 0.5074761601058697
 0.497111764562941 0.5076507802498328
 0.4971095790533349 0.5078394882038421
 0.4971127499041718 0.5078690769906962
 0.497129718261046 0.5097201396595056
 0.4971495946205687 0.5087897997955849
 0.4971433240812381 0.5072501300028054
 0.4971319166960785 0.5071575478668724
 0.497137732837134 0.506866695609985
 0.4971421557404676 0.5068851508611464
 0.4971281251215431 0.5066553402841455





# name: PV
# type: cell
# rows: 1
# columns: 5
# name: <cell-element>
# type: matrix
# rows: 100
# columns: 2
 0.5412455264868404 0.5128868345613429
 0.5013726632390485 0.5117230613889354
 0.4533708705538483 0.5128334641309605
 0.4484367315393727 0.4925193964877334
 0.5565725052388226 0.4250447754372663
 0.5522150645000312 0.4671581595890717
 0.5438971246399675 0.4662976539363441
 0.4305637394682759 0.4395448036070617
 0.4858563109098389 0.4299013564738419
 0.6123076887793452 0.5179223386693691
 0.5849716473277869 0.4947793718614457
 0.5848065778848599 0.5236404470690343
 0.587243814968151 0.5057399613788488
 0.5517048877332819 0.5099946179448368
 0.5844830576186528 0.5217552793525018
 0.5945449082764701 0.5126871423470803
 0.6031539720477456 0.5025092746612154
 0.5473327437006321 0.5159576618555808
 0.5737445981361567 0.5297343175306283
 0.5593412872503952 0.5220726725654138
 0.5697234459034225 0.5157216055590936
 0.4932499652529225 0.5260518611284584
 0.6126080521473498 0.520291463302998
 0.6082413203236864 0.5282881770622564
 0.5707944547500248 0.5188208741677143
 0.6111123124463741 0.5282600809112119
 0.500490570534351 0.5204060935887094
 0.5531220594444108 0.5246801648463491
 0.6142215248468647 0.5198060570564068
 0.618674139353852 0.5451690382452354
 0.5153989059205422 0.5513229788627753
 0.6106397939144437 0.5556679148626049
 0.5020913858201946 0.5466025690474585
 0.5094053263430778 0.546240724012515
 0.5905264705750424 0.5482467263107499
 0.5844830576186528 0.5456401981185722
 0.4773626196750737 0.5455709911316428
 0.5959018349125164 0.5728234040334952
 0.502373540169826 0.5617866031566016
 0.5789698332978032 0.5692707096124308
 0.5840590549336869 0.5650325185338271
 0.4612595195404887 0.5701888398848489
 0.5055425539124098 0.5650806985295723
 0.5658316974038934 0.567688012209943
 0.5007692108488899 0.560540527224007
 0.6009339216349248 0.5658998175472617
 0.491725175461701 0.5633300933159187
 0.4881809263272789 0.5672891895054343
 0.6181261827325314 0.5658170884460296
 0.5921628286770566 0.5681855742787748
 0.5068520229550716 0.5635280393322477
 0.5295389998597835 0.5673546265086823
 0.5808600562365911 0.5696956173720232
 0.6196394377717774 0.5669585653069662
 0.5793347373035528 0.5626391237200217
 0.6261333979068409 0.5631533163162936
 0.5022371151207505 0.5692758393168961
 0.4870494265217185 0.5677378723910811
 0.5672672413473548 0.5665082174997296
 0.5813526701510883 0.5693446789236326
 0.6045651651067148 0.5585275992116507
 0.4883416531958532 0.5689559854373254
 0.5649172475609451 0.5709689340194318
 0.584108052403141 0.5657922554143199
 0.607803481147181 0.5684510513147231
 0.5134075289029901 0.5656121615308829
 0.5031493002499003 0.5587493404365843
 0.4875375198703361 0.5624380530916372
 0.4937536044660184 0.5677573360850532
 0.6097877152708139 0.5728488075707036
 0.4962243350066933 0.5625041840584648
 0.4642783591463183 0.5659803158721436
 0.493889082792823 0.5607024288631005
 0.4576391560019316 0.5656694670974428
 0.6149299016959463 0.5713439544603885
 0.4993760561123383 0.5611628831907584
 0.4427382859156849 0.5585340828265595
 0.493183100410039 0.5599609461843523
 0.4905443572523016 0.5740234078986097
 0.4946301830156258 0.5641121405339838
 0.4972797768742745 0.5664527816566034
 0.4469376026922555 0.5735414981683962
 0.4857583555413505 0.5600854043478297
 0.5591841187335688 0.5689053359168103
 0.4490887394911162 0.5714440997468829
 0.6023695890315657 0.5727939236699018
 0.5631952369442789 0.5660503371136972
 0.4699079932259326 0.562248459933687
 0.5667115258681537 0.5598108813012845
 0.5146311962886014 0.5669417424434934
 0.4924578698199787 0.5669841791404346
 0.4941018476406159 0.5749509815986582
 0.5098797965360112 0.5715059541431635
 0.4668080343851285 0.5698273648571913
 0.4621337403666395 0.5664374320087296
 0.4903304750097835 0.558371129557218
 0.5042303770088264 0.5616015529686543
 0.526481675517289 0.564561981460958
 0.4919793238289683 0.558371129557218
 0.5774583269189438 0.5629711366895125



# name: <cell-element>
# type: matrix
# rows: 100
# columns: 2
 0.1649071243631459 0.2835057518710252
 0.2398814093012125 0.3426764459703978
 0.3504055651319916 0.2836340424345206
 0.2886376623809069 0.2464135815649015
 0.2859242451251675 0.3447967421404493
 0.2896575978106762 0.2397311254031403
 0.3208291372009525 0.2467096199171567
 0.3337729108994753 0.2681581047692683
 0.2607574879350464 0.3723236238655089
 0.1952886207059594 0.3204604050645034
 0.1259828122729282 0.2510715959804642
 0.2269095905319097 0.1933111038904104
 0.1948216983867415 0.1205598906065566
 0.3032876958217242 0.07957107467536051
 0.2707685330324571 0.1112162742774073
 0.09453723316060469 0.1185753572752922
 0.06849884011754176 0.1175340532469337
 0.2418815899404599 0.1215728287941302
 0.2585870808728764 0.1025082457606168
 0.1908132198021005 0.1356355390024578
 0.2903794611590577 0.13661424346988
 0.3122015755125491 0.1080299773745608
 0.2680364857110025 0.1365742373660488
 0.2177576508466403 0.114492398453338
 0.1577353649214228 0.08919174093086507
 0.2586157195852824 0.1414058396442919
 0.2250934221592334 0.124213671506429
 0.2976667694586113 0.1046740143684244
 0.2691927561030493 0.1304258567118697
 0.109579834783026 0.09263216144272512
 0.1614349675133214 0.1056653353679163
 0.1869640783561585 0.09063102504710985
 0.3589227088481476 0.1106997328261486
 0.2446393891551704 0.08932688457464849
 0.136126303306372 0.1149679351109655
 0.3274235662850641 0.09824555079984282
 0.178894925196119 0.1121719601353208
 0.1859525048965215 0.09874868927215524
 0.1316451928173717 0.1254609409541498
 0.2753747388364297 0.1337852639967319
 0.3147574390611311 0.1166782755211969
 0.2975313483469009 0.1242071537603686
 0.2972209860986621 0.1281464507256879
 0.1941543433911168 0.1366560084538944
 0.1468575204282304 0.09183186697073698
 0.1442253339657437 0.1017386073007494
 0.1414129064836585 0.1019699648901682
 0.09419905181582061 0.108613500030818
 0.2847781167275382 0.1078646434042447
 0.2181247894908279 0.08865614292515689
 0.08586619407034546 0.09592917035308018
 0.141279995109085 0.1204668660658292
 0.2991592521761206 0.1112332803651181
 0.349863832657438 0.1009947322184232
 0.1974036499943405 0.1004969991518381
 0.2842754775521674 0.09212632196354781
 0.3360016885442518 0.1026761864419918
 0.2632222174951709 0.1090690667200802
 0.2568310292397121 0.1121940756726894
 0.2348181164939296 0.1070105559072139
 0.2284136026617892 0.1206883762743204
 0.1528982782308151 0.107328061813844
 0.3193671006586034 0.1057938551076083
 0.2265601094713348 0.107490679684116
 0.2331987556075574 0.1084336007779152
 0.3388933887898938 0.09409856923863441
 0.2331987556075574 0.1237937760902093
 0.2352997767833948 0.09354833196022161
 0.2392001325432643 0.0899151773846556
 0.2401485823322294 0.1029280405154391
 0.2691631943032764 0.1106649934533613
 0.1837116931579753 0.09475829159395549
 0.2449737448139488 0.1248699871211605
 0.2560126739573289 0.09279354584498678
 0.2403080567392613 0.08634874307476315
 0.2330758112045607 0.124143112781393
 0.1749642832417118 0.1191430493893141
 0.1723774681270527 0.1293092227557007
 0.2443855991728665 0.09682958860909197
 0.3295550950952037 0.09682958860909197
 0.168087552728809 0.09682958860909197
 0.1701375862124712 0.09682958860909197
 0.1193346614690876 0.09682958860909197
 0.1573263537255508 0.09682958860909197
 0.2860391468815651 0.09048974122265085
 0.1006799991680922 0.09682958860909197
 0.09531121614402382 0.09682958860909197
 0.09752014116693075 0.09667734835189573
 0.2256177288412008 0.08497846726940417
 0.2252416846457942 0.09682958860909197
 0.09250075471555319 0.09341485775390429
 0.2517399768318103 0.09682958860909197
 0.1796039426564165 0.09682958860909197
 0.2691894799153763 0.09682958860909197
 0.1449799018747229 0.09682958860909197
 0.1935979984535095 0.09682958860909197
 0.2230438750262348 0.09682958860909197
 0.1737506201874868 0.09682958860909197
 0.3554309550052118 0.09682958860909197
 0.1250861809538018 0.09682958860909197



# name: <cell-element>
# type: matrix
# rows: 100
# columns: 2
 0.161702732112203 0.05607845998985805
 -0.01118133718972816 -0.006604742591615365
 -0.01429098208872903 -0.02445861274035444
 -0.04753843353545051 0.1236089778937388
 -0.05565230659348258 0.04649510920148772
 0.127159033969864 0.09859139399753775