# Created by Octave 4.0.0, Wed May 09 11:37:25 2018 CEST <olethros@olethros-OptiPlex-9010>
# name: results
# type: struct
# ndims: 2
 1 5
# length: 8
# name: options
# type: cell
# rows: 1
# columns: 5
# name: <cell-element>
# type: scalar struct
# ndims: 2
 1 1
# length: 8
# name: A
# type: scalar
2


# name: X
# type: scalar
8


# name: Y
# type: scalar
2


# name: Z
# type: scalar
2


# name: lambda
# type: scalar
0


# name: n_iter
# type: scalar
100


# name: horizon
# type: scalar
100


# name: n_samples
# type: scalar
1





# name: <cell-element>
# type: scalar struct
# ndims: 2
 1 1
# length: 8
# name: A
# type: scalar
2


# name: X
# type: scalar
8


# name: Y
# type: scalar
2


# name: Z
# type: scalar
2


# name: lambda
# type: scalar
0.25


# name: n_iter
# type: scalar
100


# name: horizon
# type: scalar
100


# name: n_samples
# type: scalar
1





# name: <cell-element>
# type: scalar struct
# ndims: 2
 1 1
# length: 8
# name: A
# type: scalar
2


# name: X
# type: scalar
8


# name: Y
# type: scalar
2


# name: Z
# type: scalar
2


# name: lambda
# type: scalar
0.5


# name: n_iter
# type: scalar
100


# name: horizon
# type: scalar
100


# name: n_samples
# type: scalar
1





# name: <cell-element>
# type: scalar struct
# ndims: 2
 1 1
# length: 8
# name: A
# type: scalar
2


# name: X
# type: scalar
8


# name: Y
# type: scalar
2


# name: Z
# type: scalar
2


# name: lambda
# type: scalar
0.75


# name: n_iter
# type: scalar
100


# name: horizon
# type: scalar
100


# name: n_samples
# type: scalar
1





# name: <cell-element>
# type: scalar struct
# ndims: 2
 1 1
# length: 8
# name: A
# type: scalar
2


# name: X
# type: scalar
8


# name: Y
# type: scalar
2


# name: Z
# type: scalar
2


# name: lambda
# type: scalar
1


# name: n_iter
# type: scalar
100


# name: horizon
# type: scalar
100


# name: n_samples
# type: scalar
1







# name: PU
# type: cell
# rows: 1
# columns: 5
# name: <cell-element>
# type: matrix
# rows: 100
# columns: 2
 0.414221808585396 0.5202384198091388
 0.5958340157439532 0.5202384198091388
 0.5885799104561975 0.5202384198091388
 0.5374638607127982 0.5027895796279186
 0.5052139703657987 0.4423826354792936
 0.6223379345366532 0.5360329128901995
 0.6107601744201117 0.5165547692554819
 0.5174409178826441 0.5544894625224384
 0.4921655469512337 0.542443796642883
 0.4441954928973696 0.5717470565255419
 0.5229752227239357 0.556639452269361
 0.5808502811876732 0.6023975014007795
 0.547991475480206 0.5471043137020661
 0.6521388785390729 0.5957330754483328
 0.6246809937204856 0.5833233326173399
 0.5157156056263981 0.6324410536169693
 0.5312532477036598 0.5815300666752758
 0.6276613804517903 0.5689712489856985
 0.6327089818986369 0.5522053288497991
 0.5961827883525843 0.5535874328255059
 0.5382926027186029 0.5480616714511327
 0.626198654162134 0.5543290212684983
 0.615122505857278 0.5972253622264818
 0.5227718850212539 0.5744377132533085
 0.5336323827531427 0.5629003088364473
 0.5227718850212539 0.584027920310954
 0.6288170839581844 0.5692176081554906
 0.5573473099132638 0.5916756740556397
 0.5292517783728146 0.5469529347030142
 0.6327089818986369 0.5882069236515846
 0.6168988872289567 0.5450539511160036
 0.5347613039806765 0.5730693233314523
 0.5505483628346233 0.6103003978047461
 0.5000496379315489 0.5697857826059405
 0.6032726153462888 0.6327089818986369
 0.6603077074070718 0.6327089818986369
 0.5683579407119159 0.6327089818986369
 0.6063469307530642 0.6327089818986369
 0.5923231293285467 0.6327089818986369
 0.6507093131282891 0.6327089818986369
 0.6214477134776211 0.6327089818986369
 0.6603077074070718 0.63100829368176
 0.6159956100476363 0.6327089818986369
 0.6587431935650991 0.6327089818986369
 0.574535806399485 0.6327089818986369
 0.6500137246122408 0.6327089818986369
 0.6572912374749222 0.6327089818986369
 0.6502089461960636 0.6327089818986369
 0.5421358547360186 0.6327089818986369
 0.5268726433233316 0.6327089818986369
 0.6485314576292989 0.6327089818986369
 0.630283012671101 0.6327089818986369
 0.6192119043121971 0.6327089818986369
 0.5365162663468097 0.6327089818986369
 0.658371758522226 0.6327089818986369
 0.6091030341715178 0.6327089818986369
 0.5682704632765208 0.6327089818986369
 0.6100280357047645 0.6286539471953845
 0.5822694812798952 0.6327089818986369
 0.6327089818986369 0.6327089818986369
 0.6104285247714769 0.6229148481415245
 0.651469399550753 0.6234772472024155
 0.5509365605456286 0.6271329228025755
 0.5824237778668988 0.6269262734122676
 0.6600979047371238 0.624921647876939
 0.620556180076268 0.6272152411832035
 0.6142253669784207 0.6225449629763498
 0.5729768723539987 0.6227420767347362
 0.5908483596213849 0.628455003427702
 0.5999382776112248 0.6312368304334426
 0.6412087292540788 0.6237405011988165
 0.6181605924537259 0.6282639631193614
 0.5298112400361972 0.6239341508631411
 0.5633219408783765 0.6188194722227789
 0.6135808737571937 0.6240044794660722
 0.6470680746257 0.6289727497462474
 0.5489097110984802 0.6253211195677468
 0.655576713704819 0.6281645392342232
 0.5530663589076907 0.6283331638937901
 0.5507095022998155 0.629856663251031
 0.553480541671189 0.6279201410006447
 0.640195323571576 0.6299547049655403
 0.5574099655446321 0.6271292646633642
 0.5569302444482587 0.6256610547596329
 0.6322511023551106 0.6268239210485367
 0.5256218820906242 0.626720821691334
 0.5560703595103075 0.6289019513984371
 0.6002351235584882 0.6242993321804484
 0.5081894921888869 0.6273762010277786
 0.5574099655446321 0.6265759812175324
 0.64716954961871 0.6240633135302238
 0.5934903933928751 0.6238427864106508
 0.5469753241588301 0.629638834790025
 0.6480068108984329 0.6248646612623399
 0.6513815678255523 0.6282251972252523
 0.6599263163249638 0.6276523836249175
 0.6494472096751831 0.6247015268952056
 0.6101183037430836 0.6226107184914766
 0.57340468830131 0.622601573431885
 0.6070961817582039 0.6252463707340754



# name: <cell-element>
# type: matrix
# rows: 100
# columns: 2
 0.4921790340135477 0.5087206456081487
 0.5252321147427734 0.5087206456081487
 0.5071807030420779 0.5087206456081487
 0.459545638771674 0.5087206456081487
 0.3832094278080935 0.5087206456081487
 0.4803984658900445 0.5087206456081487
 0.5997204742429807 0.5087206456081487
 0.4829154477107717 0.5087206456081487
 0.6041928166050063 0.5157991222302902
 0.4872366397636383 0.4742512025803177
 0.6015198813829745 0.490648594569457
 0.5034133545514694 0.5266245415085111
 0.4396749114946337 0.5154459188247593
 0.5274001940355485 0.4972084410914226
 0.4357486193505595 0.5397273494723667
 0.4298971840972062 0.5327355244005224
 0.5975454880477995 0.5099457545476515
 0.3848854005928498 0.5272432189972366
 0.5104057568732216 0.5412600318409437
 0.5991559067363786 0.4923683243720155
 0.6603077074070718 0.5690378409551909
 0.5418959008410857 0.5461817697021843
 0.543547979108306 0.5494067847319998
 0.5701312378197504 0.5527825296201379
 0.5076750828824809 0.6070456378382203
 0.5784669635040305 0.5293142017690788
 0.5371285953477067 0.6017183693075147
 0.6502751445731161 0.6299442456595348
 0.5099719155743965 0.5677288880984149
 0.600986760964348 0.5973098394649392
 0.5386118410000367 0.5875113282294022
 0.5432006832926035 0.5916746786949738
 0.5135975801419179 0.6026591131007717
 0.6249059951658176 0.6180808524305323
 0.5007087136902489 0.6208945050380958
 0.6425589743905318 0.5839040430079125
 0.6497115635739654 0.5910550431656934
 0.5977576266245157 0.6328242029774895
 0.5489918977719102 0.6164683858720363
 0.5700984731515749 0.6407261079467397
 0.4936663142286564 0.6008049574037539
 0.6159824864211751 0.575359306175772
 0.5280399062971426 0.6408189316750235
 0.6094020488132301 0.560965622508478
 0.6494472096751831 0.5848926761099282
 0.5994924788090261 0.6056164888404489
 0.5591130063838599 0.5879145439377793
 0.6157898252409595 0.6150197359038194
 0.5177679333060066 0.6519685243359004
 0.6159236431377584 0.6532631033792213
 0.5652045531657381 0.6490402900867354
 0.5722039558221624 0.6570060560441227
 0.6436123519228942 0.6524711329118806
 0.6025925071908709 0.6526920308736543
 0.5870846079699776 0.6545710451141535
 0.6001632989631382 0.657208830524693
 0.6422234430330047 0.6533063129752432
 0.6010263749801295 0.6467429096617625
 0.5653836481223554 0.6468949075990802
 0.5600458050612124 0.649834940993558
 0.5973585479377723 0.6419695944518802
 0.6024190055594261 0.6441134622773752
 0.5620687893651652 0.6488122959789822
 0.6165460128633748 0.6471699911104656
 0.6037494366114313 0.6467531401828819
 0.6393404996224947 0.6438921825984005
 0.6148225061154731 0.6447617693355077
 0.6205620533556326 0.6464484426866242
 0.6109345006074776 0.6439015801992323
 0.6214234935589278 0.647442649964876
 0.6324537346706915 0.6467360586780693
 0.6513651319630187 0.6502169728970442
 0.6515567146376714 0.6519193274366502
 0.6167260057311938 0.6515313476265459
 0.5947584116653075 0.6445194076197476
 0.585316301058818 0.6445206780306141
 0.5675448848142809 0.6459519790789532
 0.4994239690691996 0.6455522855131288
 0.605880730302629 0.6374936760068555
 0.5568126807501512 0.6469559570496159
 0.6527940450115859 0.6449129848701951
 0.6322401061272844 0.6406629302111053
 0.5798561216949367 0.6401646035054676
 0.6131321724430076 0.644420430874024
 0.4989262444590554 0.614124869000001
 0.6040886900678818 0.612765236546569
 0.5865650212128311 0.6167684344646407
 0.6106604011121273 0.6112382830839362
 0.5980544304906803 0.6054536511105073
 0.5105978672850473 0.6037062050244766
 0.4639481337535967 0.611660784188965
 0.6391636582209774 0.5994668913596091
 0.5670751760183851 0.6383476801047914
 0.5176095844863084 0.5901562502185633
 0.510290295322214 0.6028255696934597
 0.5281890531651917 0.5901123127539616
 0.6036592544475849 0.6125856659622155
 0.483987854408557 0.6026061412464163
 0.5891530660199411 0.613614599760369
 0.6095731262451334 0.6133703300447924



# name: <cell-element>
# type: matrix
# rows: 100
# columns: 2
 0.5794021360645929 0.4872166105494535
 0.5107995509929956 0.5045534718079551
 0.4553392976090008 0.4574485994908448
 0.5768797184502039 0.4405339982674616
 0.5741972734083622 0.4715921778727618
 0.5757441170015464 0.5256399679477993
 0.5484680157938706 0.5162379460843989
 0.5790291791701336 0.5296364039356475
 0.5333811236773112 0.5282494075363415
 0.5134925130631758 0.5329574161548523
 0.5731406346171908 0.5183750677017974
 0.5708303720844039 0.536628837961822
 0.6369877057247169 0.5287771401842056
 0.6324052577157535 0.5234264738719961
 0.5878454390694453 0.5326380995115705
 0.6440403557747543 0.5281572894938545
 0.5820348176256984 0.4573730896630419
 0.5758835379792115 0.4582647137024929
 0.5546787362788508 0.4778783251021984
 0.6061374201243498 0.4537833716887703
 0.6069830415217808 0.4694803883865477
 0.6189291199295908 0.4808592547772426
 0.5680751539593769 0.4611857692911813
 0.573469793031204 0.4442819834592986
 0.5604950517981248 0.4323511818093429
 0.6387435679809086 0.4348385067778741
 0.6475711408836673 0.443186935118379
 0.5916135256909077 0.4489690459367123
 0.633687414070728 0.4522931753792842
 0.576565945803154 0.4550647299150476
 0.6205693274513837 0.4426367240346662
 0.6054789278336854 0.4282060420515862
 0.549731020433246 0.4333877818622155
 0.5778802023252505 0.4404174774143742
 0.6381198692982786 0.4388970992661721
 0.6387521991721707 0.5222124233578714
 0.5994389154781135 0.5214255160339905
 0.5665059476314431 0.5207592207480455
 0.6289263810717252 0.5212712651018809
 0.6287750470389466 0.5126349886320458
 0.6054789278336854 0.5198332883083885
 0.5989756511555457 0.5198332883083885
 0.5762514988870737 0.505950113439561
 0.5701144533989719 0.5198332883083885
 0.5901224602331487 0.5198332883083885
 0.631186730225348 0.5198332883083885
 0.6380272502799118 0.5198332883083885
 0.6166362336530001 0.5198332883083885
 0.6447779193547667 0.5198332883083885
 0.6464823107675806 0.5199070774328246
 0.5920506901376219 0.5198332883083885
 0.6362278431224431 0.5198332883083885
 0.628073818502674 0.5198332883083885
 0.6310109448811118 0.5198332883083885
 0.619096187823382 0.5198332883083885
 0.5330737431442945 0.5198332883083885
 0.62553640694108 0.5198332883083885
 0.547990921482278 0.5198332883083885
 0.6212890225033656 0.5198332883083885
 0.6332655892370693 0.5181191456314254
 0.6406852297060825 0.5198332883083885
 0.6145195576689788 0.5222298729946446
 0.5948341912125445 0.5198332883083885
 0.6418295906136116 0.5198332883083885
 0.6447968024935034 0.5127026271928459
 0.6242158132066482 0.5113530838203237
 0.6467532548333743 0.5167405876317887
 0.6513518559306043 0.5177258758539325
 0.6204689769993073 0.5165598992140505
 0.6288471343578024 0.5174258112329788
 0.6212890225033656 0.5155769747546088
 0.6238891076917966 0.5158904087333229
 0.6376418950277265 0.5173634362275823
 0.6254769590297493 0.5140769208783929
 0.6483002333353902 0.5105151615458012
 0.6214050558082742 0.5153364542372487
 0.6260783353818196 0.5210486960247844
 0.6138472092936667 0.5236033144589864
 0.6324218498541994 0.516361631801147
 0.6465086129623174 0.5172210455957522
 0.5560068125146287 0.5168080471988323
 0.6458601004522087 0.5143562298044999
 0.6197197480095762 0.5203782438803894
 0.6216828177159637 0.5172332684704355
 0.5608277295826449 0.5161836382560834
 0.6478790039389442 0.5138180770243608
 0.6107081023104309 0.5128853049720647
 0.6332613625825082 0.5162940157125981
 0.6263380874955498 0.5123869086185251
 0.6564859871455315 0.5113608286745124
 0.6537070322946448 0.5097859407532095
 0.6501367941904979 0.5160180191346564
 0.6504887280034936 0.5139793405658335
 0.6374691116460569 0.5151339319218609
 0.651314786163014 0.515809453312378
 0.6421482819261941 0.5153034307424862
 0.6438858380321423 0.5114921183916168
 0.6484780395721939 0.5101041680923044
 0.6492981606901393 0.5094537961987329
 0.6389009503839099 0.511756085154317



# name: <cell-element>
# type: matrix
# rows: 100
# columns: 2
 0.53392175468602 0.4127115850042123
 0.4862180542427655 0.396640496478711
 0.4243928905732721 0.4598397491905136
 0.4453414746261617 0.50540157347542
 0.5268776899105457 0.4714375094451074
 0.5539226458873889 0.4323797476975969
 0.4864526538878514 0.4968421495960724
 0.4777611172356841 0.4507939722854811
 0.4633487589303191 0.4844165779323757
 0.5205348446453354 0.5036709370577223
 0.4021304596653431 0.5031562033234412
 0.4292834890044376 0.5056055527331544
 0.5196435919289593 0.4172430300192463
 0.4471592810042768 0.4324373257166859
 0.5629653541544289 0.4961217321817418
 0.4558621209159222 0.4478074841516781
 0.5659554978600539 0.4238780649418004
 0.4626548086571614 0.4758042889154172
 0.4794531629020563 0.5195169989005792
 0.4767417294931912 0.462409846119484
 0.5082732078665106 0.473283959264277
 0.506291687075847 0.4092899925948456
 0.5188156120082358 0.4824042032410037
 0.5040259804124133 0.5442266723969573
 0.5127634284992452 0.492331486388931
 0.5071487795172656 0.4310252812040307
 0.5223543207185076 0.497862974000014
 0.5040822048795681 0.4682421392508527
 0.5907853251318367 0.3880433369537189
 0.4535686238091889 0.4605090659818963
 0.5565417985240132 0.4603044418883036
 0.5154578760633962 0.4893304933437183
 0.5044897791720412 0.4694566250303774
 0.4647178130194948 0.4658287812982083
 0.54656773129549 0.4957891691627621
 0.4802048232938571 0.502871508441272
 0.495188113504596 0.5047517834617218
 0.4398199754965225 0.5062813643339827
 0.5565617365105231 0.5506622496686677
 0.5307587198435921 0.4979077419819347
 0.4471951729442729 0.4677920554486433
 0.6038413322847551 0.4861939286288586
 0.4702186768145081 0.5075162953577077
 0.5102357489247467 0.4989084787983346
 0.4511686183113269 0.5029553233518083
 0.4648313795715744 0.5146961256485316
 0.4525419045405142 0.5193380066142204
 0.4601233770969163 0.491168668149949
 0.4525371721251304 0.442719540276596
 0.5606137872687418 0.4894251900289467
 0.5824842827319088 0.4962836315807763
 0.4486952388438255 0.4812194689586669
 0.480843658777688 0.5204016361050999
 0.482784288268176 0.5199839333331966
 0.4377146872247163 0.4895308089817471
 0.451252680305504 0.5246765936521633
 0.6014595877116908 0.4752142345296288
 0.5151764526815997 0.4811472313247704
 0.5735135062270598 0.4739499250358097
 0.5364074005416483 0.4537894384778418
 0.5679053102272253 0.4824822931347638
 0.5831492640964731 0.4229811252491252
 0.5828123820268483 0.4397012021817392
 0.4818639157297618 0.4838874716028568
 0.5624210409425321 0.4599550101099315
 0.600248569703733 0.4771096627900903
 0.5892273039708581 0.5133658812975117
 0.5523738075294874 0.4665177505070296
 0.5330979119462207 0.486398228151899
 0.5555260333265546 0.4715799729281604
 0.5265862094097122 0.5131616658546588
 0.5186029600011833 0.443845207894855
 0.5453219159910792 0.4780004516718249
 0.457475990488912 0.4640513361665617
 0.5731424397598717 0.4570029966347174
 0.5552599472876903 0.402846756267043
 0.5547796565043386 0.4892309327386062
 0.4724740872135245 0.4692144135629149
 0.5331419003671289 0.4228347868867909
 0.5619002525293524 0.4803270548980405
 0.5478785252828235 0.4303028772337029
 0.5720299534468365 0.4632546287398476
 0.5021636596238682 0.4429933112067672
 0.4534776297252762 0.4477424566836916
 0.4870599064340247 0.4843070654754549
 0.4656111874433868 0.464371665679391
 0.5722434113537036 0.4496019450352445
 0.5589363022944493 0.4828814738762876
 0.5467867683577214 0.4762357007828735
 0.5309968735740502 0.502556339844032
 0.5399504425762238 0.4354171311778189
 0.4936587502032422 0.4552807797658724
 0.5144428036990482 0.4430271530112831
 0.4633437607242323 0.4330615162881191
 0.419792516038608 0.4554080646280948
 0.4296224530389374 0.4413831531455123
 0.4784752944904809 0.4519705657283152
 0.496231500339886 0.4750361216703689
 0.4532838404960081 0.4284590522639613
 0.530211568103945 0.4599900539230233



# name: <cell-element>
# type: matrix
# rows: 100
# columns: 2
 0.4581820650439663 0.4467871687615947
 0.4497583897439478 0.4566227343104089
 0.4574654464147957 0.4602453723226489
 0.4562220637777986 0.4617617205182292
 0.4805874528709103 0.4614453223597944
 0.4775069771929403 0.4613019358337687
 0.4789896734030039 0.4620998883620559
 0.484058101303212 0.4668770710695111
 0.4902448722290944 0.472169117956061
 0.4905925252233082 0.4727585087595032
 0.483174254952616 0.4728535279380325
 0.4801907576480463 0.4725868267940579
 0.4862386758771178 0.4722865440922076
 0.4904241902051035 0.4721595114883142
 0.4943856345565006 0.472253959728371
 0.4932536660152785 0.4714754367796233
 0.4917487748086564 0.471341620890583
 0.4915037991201356 0.4713280160835679
 0.4911212742089495 0.4713902888974137
 0.4935432409404271 0.4704869679808096
 0.4927856923520778 0.4710204818838351
 0.4929213560636885 0.4719587046984813
 0.4947069829156236 0.4719484739199757
 0.4947916452896164 0.4718450388028188
 0.4944843206375454 0.4714990057301123
 0.4947289771384195 0.472113046695515
 0.4945380348299566 0.4724906409139918
 0.4940950289392396 0.472162137324394
 0.494053653016476 0.4720535045072941
 0.4941224846647275 0.4719837368753985
 0.4941553865882257 0.4704383397679143
 0.4941399792397558 0.4698881473086283
 0.4941534402670148 0.4697105986349196
 0.4941671983300613 0.4694832999523186
 0.4941553760414787 0.4681798068500801
 0.4941662996301337 0.4670981595565362
 0.4942878174610637 0.4663243088447675
 0.4942152828027299 0.4665326486395937
 0.4942375827854338 0.4665659806812732
 0.4943735607970784 0.4661535340485506
 0.4941610453396307 0.466179195103495
 0.4942392201347299 0.4659380383513468
 0.4941642325424643 0.465606944199552
 0.4940647171956655 0.4656062904571013
 0.4942131594811554 0.4656583619409639
 0.4942330707757874 0.4656378186375335
 0.4942487768454566 0.4656160537129871
 0.4942715386479684 0.4656313312509605
 0.494390573311003 0.4656147274824652
 0.4943279103454331 0.4658377022762945
 0.4943680393544893 0.4661734427146407
 0.4943396731906043 0.4659824041745387
 0.4943585017212513 0.4649340588965706
 0.4943235624369182 0.4648976956341661
 0.4943162217950977 0.4649895755341969
 0.4943964426087659 0.4649833418108281
 0.4943164547662442 0.4648142895706291
 0.4943582169018052 0.4648085213509353
 0.4944386387939999 0.4648591362928501
 0.4944309656019295 0.4648493014498029
 0.4944449354366602 0.4648420894872507
 0.4945833056148095 0.4648873455915247
 0.4947323274651282 0.4648822976024647
 0.494671133648122 0.4649830442019844
 0.4946607408052834 0.4650316386961632
 0.4946492423937045 0.4650585875328657
 0.4946857102782101 0.4650729220216387
 0.4946994526099618 0.4650919800855932
 0.4946976997652561 0.4650370101908143
 0.4946693913482325 0.4650314580995042
 0.4946662952358127 0.4650088149985324
 0.4946772298111336 0.4650225651750367
 0.4946819157159356 0.4650343650354569
 0.4946624987196174 0.4650375207272035
 0.4947028328428824 0.465058249557381
 0.4947019310077885 0.4650660491749237
 0.4947933986677315 0.4651177265695193
 0.4948164871098565 0.4651777668424854
 0.4948187893835318 0.4651665321084497
 0.494847777723259 0.4651702888392139
 0.4948617304168996 0.4651899119573081
 0.4948661599842494 0.4655188560782898
 0.4948407618865271 0.465524879827085
 0.4948384488758826 0.4655455150436955
 0.4948270622493856 0.4655712224563755
 0.4948291511381422 0.4655972300824175
 0.4948325559469812 0.465289449059383
 0.4948362518246573 0.465273746387623
 0.4948417397539334 0.4652728967245643
 0.4948349398717005 0.4653685715885306
 0.4948250757811551 0.4654061042957785
 0.4948261789195312 0.4660670158113367
 0.4948289976260705 0.4660768427689082
 0.4948267487075458 0.4660170451578275
 0.4948285818512724 0.4663189623423789
 0.4948265323321682 0.4663205217789184
 0.4948293643321857 0.466383132476225
 0.4948298344801454 0.4666418590634057
 0.4948261811727928 0.4666776551844851
 0.4948255418710767 0.4666945967888429





# name: PV
# type: cell
# rows: 1
# columns: 5
# name: <cell-element>
# type: matrix
# rows: 100
# columns: 2
 0.414221808585396 0.5202384198091388
 0.5958340157439532 0.5202384198091388
 0.5885799104561975 0.5202384198091388
 0.5374638607127982 0.5027895796279186
 0.5052139703657987 0.4423826354792936
 0.6223379345366532 0.5360329128901995
 0.6107601744201117 0.5165547692554819
 0.5174409178826441 0.5544894625224384
 0.4921655469512337 0.542443796642883
 0.4441954928973696 0.5717470565255419
 0.5229752227239357 0.556639452269361
 0.5808502811876732 0.6023975014007795
 0.547991475480206 0.5471043137020661
 0.6521388785390729 0.5957330754483328
 0.6246809937204856 0.5833233326173399
 0.5157156056263981 0.6324410536169693
 0.5312532477036598 0.5815300666752758
 0.6276613804517903 0.5689712489856985
 0.6327089818986369 0.5522053288497991
 0.5961827883525843 0.5535874328255059
 0.5382926027186029 0.5480616714511327
 0.626198654162134 0.5543290212684983
 0.615122505857278 0.5972253622264818
 0.5227718850212539 0.5744377132533085
 0.5336323827531427 0.5629003088364473
 0.5227718850212539 0.584027920310954
 0.6288170839581844 0.5692176081554906
 0.5573473099132638 0.5916756740556397
 0.5292517783728146 0.5469529347030142
 0.6327089818986369 0.5882069236515846
 0.6168988872289567 0.5450539511160036
 0.5347613039806765 0.5730693233314523
 0.5505483628346233 0.6103003978047461
 0.5000496379315489 0.5697857826059405
 0.6032726153462888 0.6327089818986369
 0.6603077074070718 0.6327089818986369
 0.5683579407119159 0.6327089818986369
 0.6063469307530642 0.6327089818986369
 0.5923231293285467 0.6327089818986369
 0.6507093131282891 0.6327089818986369
 0.6214477134776211 0.6327089818986369
 0.6603077074070718 0.63100829368176
 0.6159956100476363 0.6327089818986369
 0.6587431935650991 0.6327089818986369
 0.574535806399485 0.6327089818986369
 0.6500137246122408 0.6327089818986369
 0.6572912374749222 0.6327089818986369
 0.6502089461960636 0.6327089818986369
 0.5421358547360186 0.6327089818986369
 0.5268726433233316 0.6327089818986369
 0.6485314576292989 0.6327089818986369
 0.630283012671101 0.6327089818986369
 0.6192119043121971 0.6327089818986369
 0.5365162663468097 0.6327089818986369
 0.658371758522226 0.6327089818986369
 0.6091030341715178 0.6327089818986369
 0.5682704632765208 0.6327089818986369
 0.6100280357047645 0.6286539471953845
 0.5822694812798952 0.6327089818986369
 0.6327089818986369 0.6327089818986369
 0.6104285247714769 0.6229148481415245
 0.651469399550753 0.6234772472024155
 0.5509365605456286 0.6271329228025755
 0.5824237778668988 0.6269262734122676
 0.6600979047371238 0.624921647876939
 0.620556180076268 0.6272152411832035
 0.6142253669784207 0.6225449629763498
 0.5729768723539987 0.6227420767347362
 0.5908483596213849 0.628455003427702
 0.5999382776112248 0.6312368304334426
 0.6412087292540788 0.6237405011988165
 0.6181605924537259 0.6282639631193614
 0.5298112400361972 0.6239341508631411
 0.5633219408783765 0.6188194722227789
 0.6135808737571937 0.6240044794660722
 0.6470680746257 0.6289727497462474
 0.5489097110984802 0.6253211195677468
 0.655576713704819 0.6281645392342232
 0.5530663589076907 0.6283331638937901
 0.5507095022998155 0.629856663251031
 0.553480541671189 0.6279201410006447
 0.640195323571576 0.6299547049655403
 0.5574099655446321 0.6271292646633642
 0.5569302444482587 0.6256610547596329
 0.6322511023551106 0.6268239210485367
 0.5256218820906242 0.626720821691334
 0.5560703595103075 0.6289019513984371
 0.6002351235584882 0.6242993321804484
 0.5081894921888869 0.6273762010277786
 0.5574099655446321 0.6265759812175324
 0.64716954961871 0.6240633135302238
 0.5934903933928751 0.6238427864106508
 0.5469753241588301 0.629638834790025
 0.6480068108984329 0.6248646612623399
 0.6513815678255523 0.6282251972252523
 0.6599263163249638 0.6276523836249175
 0.6494472096751831 0.6247015268952056
 0.6101183037430836 0.6226107184914766
 0.57340468830131 0.622601573431885
 0.6070961817582039 0.6252463707340754



# name: <cell-element>
# type: matrix
# rows: 100
# columns: 2
 0.2122274032690105 0.3397538151096016
 0.1296128416805897 0.3397538151096016
 0.2836428483062126 0.3397538151096016
 0.1850638533909574 0.3397538151096016
 0.1942267576431659 0.3397538151096016
 0.2425794488015592 0.3397538151096016
 0.4041778876923136 0.3397538151096016
 0.1537639827796619 0.3397538151096016
 0.4011369493659183 0.2851753255645724
 0.158147577878436 0.3140431500901673
 0.412595427955158 0.2610203544471165
 0.1817897140070241 0.2989362371707072
 0.1645499110482427 0.2274483405840644
 0.1857278882926096 0.3186050927214675
 0.1809515238425099 0.3418123938225825
 0.1732309895753303 0.3151078606300867
 0.3752581336306743 0.2810925773613998
 0.1884860796298387 0.28438000691028
 0.1667813937705404 0.3147760595479851
 0.2783555377887319 0.1954589109354116
 0.4112803568814965 0.2535525487558533
 0.1616140099586157 0.2797289425184348
 0.3102431381672011 0.3238243788934309
 0.3804250958673074 0.3243453765592271
 0.2478477657012013 0.3935586500410905
 0.4029152134908522 0.2708617241119172
 0.1578551304968239 0.3381107972794071
 0.4197323753439055 0.3978755553590415
 0.2348191132672432 0.2609162807022045
 0.2747362965241786 0.2949584925088154
 0.1626180306976993 0.2567605782940326
 0.247203109690468 0.2635184741644608
 0.0600414765342151 0.2894007548043592
 0.4281679097675996 0.3340287161007357
 0.2054212768309351 0.3330473113524674
 0.4008066042415015 0.2586024239402259
 0.3934335143443031 0.2682487243029552
 0.4059299626658103 0.3616283683305562
 0.266775273572127 0.3144888800063517
 0.3580308192919265 0.3701324777196487
 0.1907178645845787 0.2784557011283209
 0.3969533971397743 0.220334660410778
 0.2973382596018525 0.3701092939203819
 0.3313574398620678 0.186905453630954
 0.3754303639239701 0.2419517664906149
 0.3925477956135685 0.289591331461145
 0.3275182785707716 0.2490435571749226
 0.4128636661318609 0.311225931294269
 0.06942429632157227 0.3959516839691809
 0.2946736468898309 0.3988643394173013
 0.2440192543496267 0.3893634903141033
 0.3850884753753335 0.4072855567448393
 0.3766096507174769 0.3970824960386747
 0.3293622702786251 0.3975794913014655
 0.2281417025684769 0.4018070594000857
 0.4137404864111651 0.4077417762384427
 0.4016842995363783 0.4032848217384429
 0.3500335145827943 0.4095908282969339
 0.3587212763584211 0.4000117461345252
 0.2868255995218544 0.4076189966440726
 0.3606218652223532 0.3916264293289246
 0.2922304248813505 0.3965700293708334
 0.2441977026883798 0.4095165968982089
 0.2960739079101328 0.4038330408682517
 0.4247515598082497 0.397076130994264
 0.3940168803860428 0.392258784728282
 0.2933238505326132 0.3961194906706322
 0.3051095417557421 0.4015369662274016
 0.449225969194296 0.3843450920601603
 0.3200993353452342 0.395795148293141
 0.3498637555115741 0.3942076757567878
 0.4310605618175967 0.4094199960627837
 0.4190852715941242 0.4101127021291566
 0.2984598696804025 0.4101491081096162
 0.2742067920370098 0.3918225236806909
 0.2431444582241997 0.4016343519575571
 0.2517431452058435 0.3959935406147899
 0.1608491099649982 0.3891926114539596
 0.4382441447092484 0.3894102596075545
 0.1854258160818335 0.4106993145888125
 0.3978090114965935 0.4061028597956899
 0.3447876278789017 0.3943248372602841
 0.3296018770845027 0.3951829476720933
 0.3039802784300155 0.4049946693859631
 0.1722731012723977 0.335551799684437
 0.3819771984526404 0.3292941580477279
 0.3769802428133086 0.338379673579541
 0.3885714762165484 0.3290166866670805
 0.4356139980230307 0.3155811704863434
 0.1669081553484027 0.3117390113743717
 0.01909201347289191 0.3255855261486621
 0.3931675294469836 0.3019969801517747
 0.3679131370765307 0.3815256017647779
 0.1605203982760065 0.2806812801824284
 0.2443424577450166 0.3096910630502715
 0.1403031739434034 0.2806616002264639
 0.357952672093249 0.3319654796191052
 0.1561767757466271 0.3089449533158314
 0.285763147509823 0.3327176826971735
 0.4414492851786829 0.3337581222589968



# name: <cell-element>
# type: matrix
# rows: 100
# columns: 2
 0.05680591016909464 0.1546409978690913
 -0.08861593012548319 0.1694853122801803
 0.119489670990614 0.1991046319965206
 0.05264587815559979 0.04680126246538385
 0.1953958591922653 0.1851149108407089
 0.003233405435395909 -0.1520038703507455
 -0.08799325759590404 -0.08490969901125012
 -0.02906629744633421 -0.1516941998662915