# Created by Octave 4.0.0, Wed May 09 11:36:35 2018 CEST <olethros@olethros-OptiPlex-9010>
# name: results
# type: struct
# ndims: 2
 1 5
# length: 8
# name: options
# type: cell
# rows: 1
# columns: 5
# name: <cell-element>
# type: scalar struct
# ndims: 2
 1 1
# length: 8
# name: A
# type: scalar
2


# name: X
# type: scalar
8


# name: Y
# type: scalar
2


# name: Z
# type: scalar
2


# name: lambda
# type: scalar
0


# name: n_iter
# type: scalar
100


# name: horizon
# type: scalar
100


# name: n_samples
# type: scalar
1





# name: <cell-element>
# type: scalar struct
# ndims: 2
 1 1
# length: 8
# name: A
# type: scalar
2


# name: X
# type: scalar
8


# name: Y
# type: scalar
2


# name: Z
# type: scalar
2


# name: lambda
# type: scalar
0.25


# name: n_iter
# type: scalar
100


# name: horizon
# type: scalar
100


# name: n_samples
# type: scalar
1





# name: <cell-element>
# type: scalar struct
# ndims: 2
 1 1
# length: 8
# name: A
# type: scalar
2


# name: X
# type: scalar
8


# name: Y
# type: scalar
2


# name: Z
# type: scalar
2


# name: lambda
# type: scalar
0.5


# name: n_iter
# type: scalar
100


# name: horizon
# type: scalar
100


# name: n_samples
# type: scalar
1





# name: <cell-element>
# type: scalar struct
# ndims: 2
 1 1
# length: 8
# name: A
# type: scalar
2


# name: X
# type: scalar
8


# name: Y
# type: scalar
2


# name: Z
# type: scalar
2


# name: lambda
# type: scalar
0.75


# name: n_iter
# type: scalar
100


# name: horizon
# type: scalar
100


# name: n_samples
# type: scalar
1





# name: <cell-element>
# type: scalar struct
# ndims: 2
 1 1
# length: 8
# name: A
# type: scalar
2


# name: X
# type: scalar
8


# name: Y
# type: scalar
2


# name: Z
# type: scalar
2


# name: lambda
# type: scalar
1


# name: n_iter
# type: scalar
100


# name: horizon
# type: scalar
100


# name: n_samples
# type: scalar
1







# name: PU
# type: cell
# rows: 1
# columns: 5
# name: <cell-element>
# type: matrix
# rows: 100
# columns: 2
 0.5751373612694676 0.4324847955972064
 0.5606139251314464 0.4722718902691462
 0.5285293010805213 0.5999650297885083
 0.4906782298711321 0.5114118732331622
 0.5587093898895945 0.585358104742302
 0.6586341182666287 0.648406449080783
 0.5093583167326359 0.5375703309263229
 0.5788652884414792 0.5328200666274574
 0.4988895077395987 0.5793474327588622
 0.5247557013687639 0.5022875544622092
 0.5610628466185901 0.6031508814399205
 0.4160136661301544 0.6588475073465486
 0.650180235330848 0.6524092577257563
 0.6716205452678771 0.6542649486057219
 0.5242747298458044 0.6609033848601531
 0.6685303492677872 0.6542388481834976
 0.650444070653746 0.6486860280586445
 0.5228125120433815 0.6457674673545198
 0.6811764923746308 0.6640523868788426
 0.6357298614445759 0.6581903280126389
 0.5014623375684722 0.6488711211407137
 0.5311659704833231 0.6559254896031191
 0.5228323189856824 0.6567672377299215
 0.5077346151288868 0.6558606732639359
 0.5448790720925794 0.6630082704229094
 0.4969940206669785 0.6553460671048048
 0.6514359542813528 0.6646571249468765
 0.5733663897918329 0.6693246962950594
 0.5113126650930773 0.6628812108818517
 0.6702095245382148 0.6570414446357093
 0.6898272539049802 0.6468043745911826
 0.6680697582328629 0.6729732520669829
 0.6469820941615017 0.6725037307619353
 0.668487699805179 0.668312382319233
 0.6560554102451891 0.6670990791882719
 0.5921899949592238 0.6749976450107761
 0.4910137084022811 0.6755278824815236
 0.6758417201946848 0.6860634071082136
 0.5288646310303593 0.6772852192403591
 0.6653727182515436 0.6838238602366931
 0.6921262097398212 0.6906805110706393
 0.5357641429258533 0.6770252648652717
 0.4461854809001153 0.6837853610107371
 0.6752414432595519 0.681819296084313
 0.6758204581555401 0.6936455390725329
 0.6838551277282169 0.6888771466922794
 0.644240472343464 0.6528183730154004
 0.697906835105749 0.6812975841525386
 0.5686762991924261 0.6876838462455882
 0.7006608185737202 0.6816129653027253
 0.6220525231356092 0.6798613185145301
 0.6765740515408294 0.6799893261988158
 0.6614655372005673 0.6872031290285947
 0.6804343068042067 0.6958370838361586
 0.6533357794419451 0.6870200308243202
 0.6983298080501031 0.67793898631668
 0.6666902084981897 0.6864646155956999
 0.704311894136563 0.6875609752681864
 0.6722238075783131 0.6909903250344226
 0.6864162219259407 0.6904632823792582
 0.6889106953226429 0.6803034632041538
 0.6986381172168462 0.6954216811835542
 0.6169364903847181 0.6900763942310987
 0.6862906537117022 0.6996495725448924
 0.6983298080501031 0.6923771413284631
 0.6794781869417404 0.6881604039524976
 0.6733487795060824 0.6945683030448723
 0.6803107621511606 0.6928293925046365
 0.6866158217455524 0.6854907909191195
 0.704311894136563 0.6800623793756859
 0.704311894136563 0.694034790865553
 0.6288620515151927 0.6921981754479811
 0.6985135673396494 0.6925512859471833
 0.6632578673094127 0.6862421623283993
 0.6981570426475221 0.6839600569817369
 0.6408786274411629 0.70081528601849
 0.704311894136563 0.6911725414786335
 0.6921262097398212 0.6894406991667654
 0.704311894136563 0.6851473221953777
 0.6788979669098323 0.6939312182634026
 0.6940629588891393 0.6874109425405762
 0.6682416043288665 0.683504707644271
 0.6932392577723236 0.6920969758369729
 0.6921262097398212 0.6833761571615227
 0.5354652295905908 0.6831134632016235
 0.6921262097398212 0.6905112953473795
 0.6905136421784379 0.6889311504036298
 0.6673653667140701 0.6826751074515934
 0.6996608098377082 0.6892321863825627
 0.689595049477134 0.687513075591294
 0.6861441236533613 0.6860653011382422
 0.6866063736980255 0.6868235250760565
 0.6993096925849143 0.6887530743465163
 0.6738973211624534 0.6761853336141985
 0.6873192318308546 0.6942829694811459
 0.5964376392773839 0.7002282487257486
 0.6913349717162772 0.6988156221521574
 0.7030852975277614 0.6985135673396494
 0.704311894136563 0.6985135673396494
 0.7005081892449591 0.6985135673396494



# name: <cell-element>
# type: matrix
# rows: 100
# columns: 2
 0.4701617208864086 0.5726165097652441
 0.5420614075861229 0.5798395215071592
 0.553377378429813 0.5723234878317575
 0.3789317240731239 0.6629611958718837
 0.5409782467899672 0.5967839984178336
 0.5625977364335806 0.5941880436447604
 0.5739711575600254 0.6266701742663617
 0.5282735687045506 0.5785398738017722
 0.3591024143066714 0.6041736794225565
 0.5206178683130984 0.5796068990334066
 0.6946388279123143 0.5536450859333311
 0.6127238317237128 0.656980521591163
 0.5853492132382193 0.6032245005308071
 0.6773172167039894 0.5618387860786772
 0.5712399264011824 0.5887764469079675
 0.5006062098939655 0.5849198706529997
 0.6589816873471259 0.568263192934677
 0.6802588425213271 0.6357506448208338
 0.674642063632883 0.6515873597313896
 0.5808705745837731 0.6649591636469464
 0.6400204189486001 0.6461474838126404
 0.5741222317422988 0.6401414186676515
 0.6881521346283819 0.61618473542272
 0.6604409025600536 0.6305568434587787
 0.6493938665878645 0.6337220106581783
 0.6242380081868597 0.6467522896746258
 0.6150671801513747 0.6437684607922348
 0.6845508091171626 0.6352026897610266
 0.6514964269464582 0.6563446648710454
 0.5602327622551543 0.6563446648710454
 0.6921262097398212 0.6563446648710454
 0.6623267509575052 0.6563446648710454
 0.6063562893596377 0.6563446648710454
 0.6190861300441367 0.6563446648710454
 0.6293365570703593 0.6570827469266639
 0.6894891258342738 0.6642484558643569
 0.659431127513128 0.6663711742978167
 0.6289690948249566 0.661750284687419
 0.6698889956548156 0.6576079107216574
 0.6266720646574375 0.6625880284721001
 0.6280231321989553 0.6628374017131842
 0.5910660481659723 0.6578747547933675
 0.6695884357822408 0.6605814899173027
 0.6295424968223226 0.6592689103752996
 0.6170320975523547 0.6578633906223039
 0.6727121770202861 0.6591153824330237
 0.59118257474042 0.6642825091690929
 0.6295786697352294 0.6637238032931818
 0.5731635288414775 0.6609708158749561
 0.6332349506345765 0.6694468452763752
 0.632557565520156 0.6630788677047497
 0.6283967568197609 0.66727412411971
 0.590691383373076 0.6699256723609868
 0.6057463438478505 0.6682860040547365
 0.6247799581781405 0.6646376870633809
 0.6018680012590615 0.6624332846500539
 0.6082958166779505 0.6614600314074023
 0.6900281388142574 0.6663647400720168
 0.5521855207071961 0.667608876359001
 0.6441598311328642 0.6633200258444526
 0.5910660481659723 0.6530748612777278
 0.6136340572770589 0.6565715798755083
 0.6150671801513747 0.6563446648710454
 0.6621746166636925 0.6604587142731134
 0.6678360748006491 0.6600978039296989
 0.6563446648710454 0.6536606961776175
 0.6289298758353172 0.6619378908598977
 0.5827278921025658 0.6633412213641171
 0.5970481342524322 0.6524619695504038
 0.6086293460955123 0.6623267509575052
 0.6150671801513747 0.6618446787662274
 0.6201344985709143 0.6560108961258924
 0.5973628717140679 0.661777263173227
 0.586549403613619 0.6623267509575052
 0.6648495337499445 0.6623267509575052
 0.6596878580415557 0.6624105084248886
 0.5974123215556716 0.6599029963573535
 0.6099703797330812 0.6623267509575052
 0.6361803322634064 0.665453271072753
 0.5966639364043496 0.662326302410593
 0.6632804561095343 0.6623267509575052
 0.6208816555623303 0.6626979738052923
 0.6820949964645615 0.659711794513839
 0.6479369189198959 0.6619526527740257
 0.6840820983319389 0.6623267509575052
 0.6385162457084567 0.6563739192839062
 0.6563446648710454 0.6623267509575052
 0.6025844146447393 0.6635390864151299
 0.6315288912854482 0.6653232140300624
 0.6595594178170614 0.6618017626368672
 0.621996033852124 0.6692427883732394
 0.6685446674028748 0.6658426319085363
 0.674512435354247 0.6734273845630743
 0.6863278829429076 0.6715650456914982
 0.6388738657178262 0.6692646158052055
 0.6332349506345765 0.6661465757932872
 0.6248675266116031 0.6699063063726649
 0.6460239901552765 0.6681726293376413
 0.612652964966812 0.6723775853191687
 0.6056590398914259 0.6640819158221135



# name: <cell-element>
# type: matrix
# rows: 100
# columns: 2
 0.5413135400003862 0.5003879619612862
 0.3709696142679145 0.500110698846888
 0.5422190564307869 0.3844635138571616
 0.6080184286828068 0.4512427328209177
 0.6247659866009903 0.5738263165596009
 0.5620121131369062 0.6019686881779651
 0.5613800544112801 0.5697958212327147
 0.5126376511306915 0.6526478665969201
 0.5366165396425591 0.6327419352519228
 0.5356802895251351 0.524430304945398
 0.484057037924067 0.5702999405543057
 0.4784156730928733 0.6578567232138106
 0.6005983306592136 0.5420359403927568
 0.5809291511994156 0.6180034194030805
 0.5521905206834014 0.5806900880418144
 0.5755999677705032 0.5251808125263701
 0.4935477756467351 0.5412208773080351
 0.5102027577869553 0.6131624105710479
 0.6595636930488896 0.5797910400812724
 0.555557931157767 0.6254090950921244
 0.4833891453335977 0.5509665213430424
 0.6003256669128797 0.6351724176522364
 0.494293921752375 0.5964273852230569
 0.507221199051202 0.6903435631064482
 0.5588514155934012 0.6878112232406576
 0.4980940720553846 0.6846138063448799
 0.549415986357474 0.6715931848407979
 0.5184552001206922 0.6714448748541919
 0.4610515536406056 0.6730236382971413
 0.6038285800625075 0.6691625239629059
 0.4820320182205357 0.6723438745114516
 0.4910291174800473 0.6743286760647007
 0.4985180242060746 0.6734760935145724
 0.517997338518753 0.6743286760647007
 0.4966500125439505 0.6743286760647007
 0.5940201820940242 0.6743286760647007
 0.5966035787315103 0.6737132034182577
 0.6319525812100778 0.6743286760647007
 0.5300418206421801 0.6742713782741668
 0.5667667977120815 0.6743286760647007
 0.6311923749251117 0.6743286760647007
 0.5973949066446148 0.6743286760647007
 0.6174768499222153 0.6743286760647007
 0.5920890567322319 0.6743286760647007
 0.5475049488786663 0.6743286760647007
 0.6099487466506639 0.6743286760647007
 0.649360281381696 0.6756799091459332
 0.6189576859572048 0.6777772000882285
 0.6273630065343812 0.6788033860398563
 0.6248763611938125 0.6796199614494725
 0.5588965414848787 0.6797770522466189
 0.4920201706934371 0.6795756544768348
 0.5898373651034076 0.676889033899285
 0.6870009452683908 0.6794351643858381
 0.5924671867273211 0.6793180994106749
 0.6037891028678651 0.6802540892285249
 0.628867643034794 0.6794736215386884
 0.6031386339116984 0.6792945262725691
 0.6794790355216674 0.6791454227966971
 0.5446295517619067 0.6784269192993637
 0.5925995478848174 0.6801417605462584
 0.6175988984406575 0.6793736544753345
 0.610928717317999 0.6797328475076371
 0.6283655146001182 0.6794527995538822
 0.6100809058559501 0.6792431347395826
 0.5929305167933027 0.6793782985270864
 0.5715335623288229 0.6797164700842141
 0.6447595677860916 0.6801807387205211
 0.5926277096556199 0.6792947035116365
 0.6060574827314906 0.6786919707518075
 0.5886325231320805 0.6777794897014
 0.6124371823910252 0.6781038140519063
 0.6058225746469812 0.677219616385211
 0.5409127723360505 0.676985706191491
 0.5986830684664982 0.6773644668355626
 0.5675209403128844 0.678611162903123
 0.5730760366093888 0.6789346064402736
 0.5837537451507697 0.6774667752753344
 0.6066674729866599 0.678781678012542
 0.6210910292909202 0.6783362283094264
 0.6384753751033851 0.677800492282958
 0.6045156161045906 0.6782741165228892
 0.6115248940184839 0.6788898685563557
 0.6362302977270156 0.6784084476506482
 0.5411934385971179 0.6779797429467049
 0.5970814482183736 0.6794097177031282
 0.6248347372606633 0.6782403650446434
 0.584266848226673 0.6784662835945271
 0.5700500777049854 0.6779935139972503
 0.6006806020637852 0.6774631046216832
 0.5782016708668418 0.6777122562751614
 0.5924299684221624 0.6774294580495573
 0.6109464683662573 0.678732269680679
 0.5803868860757755 0.6784693924648102
 0.6262471721494453 0.6781274004068828
 0.5989602097526944 0.6784350418337313
 0.6545265357286266 0.6790875464663706
 0.5911475400351328 0.6777179060430729
 0.596109789130817 0.6788237817203894
 0.5903774467638997 0.6775487736575077



# name: <cell-element>
# type: matrix
# rows: 100
# columns: 2
 0.642205833661351 0.6084028370191189
 0.5138051427256682 0.6084028370191189
 0.5454798593301005 0.6084028370191189
 0.6837142631740297 0.5989190805403822
 0.6678721935506237 0.5467473292688148
 0.6341412245158696 0.6254667650068713
 0.5633919900563384 0.6456544645540445
 0.5626017462539036 0.6286173996976968
 0.6579686777741451 0.6679793837258711
 0.5974139750124934 0.6456965909502034
 0.6567631995263072 0.611663330849073
 0.6219033479914672 0.6523178244423585
 0.6729539736337575 0.5937215179999031
 0.6108286831124935 0.6547481836647728
 0.6071669817399326 0.6468982976845408
 0.6293721305790437 0.6257409998937975
 0.65781043039204 0.6513216450596548
 0.5996082552626146 0.6354435732724601
 0.6130793974867733 0.6444300087165005
 0.6613892023398549 0.646571735382199
 0.5979837338346831 0.6143308206000255
 0.6169352576872695 0.6258677524215399
 0.640448628876194 0.6233062713371591
 0.6486467079697568 0.6143518457694815
 0.679479746267096 0.6067030889586466
 0.6453311983464894 0.6468418826044209
 0.642593870440335 0.6123173206539666
 0.6019824310000721 0.5956823432444575
 0.6000504234179018 0.6101885018057918
 0.6097995666108682 0.6106665621251384
 0.6226478689201884 0.6477080829869201
 0.6086513675081865 0.6372259181981722
 0.6095716401677665 0.5979151014550903
 0.6044264106650387 0.5974427496060312
 0.6113524383599177 0.63554892603404
 0.5951561961322344 0.6351258150322286
 0.6393125633584873 0.5917648748825565
 0.641214771431259 0.6276989149080311
 0.6471731559977374 0.6586904661902185
 0.6111164414921256 0.631053082854267
 0.6450957989873953 0.5984084632527045
 0.6496007337676676 0.6394022212271472
 0.5973273050427728 0.6488243733924608
 0.5985580591833417 0.6332935965160265
 0.6370059611576337 0.6079260839231378
 0.6925768964840333 0.6297022578317948
 0.6173158624970839 0.6451668374424533
 0.6048833333189013 0.6282752196789271
 0.6645922383022875 0.6037470928545777
 0.6236766720216188 0.6310966474352554
 0.6544742827091018 0.6229868394367694
 0.6253040382125369 0.6089494709610497
 0.6078599768215923 0.6318206577229641
 0.6241800566021747 0.5973668652458324
 0.6128277103438604 0.6542000412185984
 0.6358827150404549 0.6049525497853963
 0.6137105002697243 0.6092861651343476
 0.6128327220808615 0.6073754813843567
 0.6726522396951667 0.6408554583136435
 0.6402408073661724 0.5977526052744433
 0.6723448432408443 0.6288713188463828
 0.6081089234532134 0.6489574617857989
 0.6821354680915369 0.6069604095069704
 0.6515618981520721 0.6682975712458133
 0.6193669690775714 0.6315554328789392
 0.5815673785755227 0.6389652972295372
 0.6528995647316052 0.6793718633268784
 0.6129559294455506 0.6736588825953548
 0.6159466080865073 0.645280296715014
 0.6079371644070232 0.6769745389247714
 0.6009791907770369 0.6377875540551692
 0.6724961254900119 0.6526591894365079
 0.5888197329582948 0.6344018847069137
 0.6321722034711306 0.6399844688933813
 0.657500259195622 0.6655013732265056
 0.6433131883179554 0.662208688455084
 0.6427303800720898 0.6336950597684575
 0.6223268680926914 0.6510850955463947
 0.6549667193838818 0.6438059844957391
 0.6137565197894956 0.6329832208243167
 0.6107833592455465 0.6303287856267856
 0.6036172604988509 0.6430240184500849
 0.5950186471066782 0.6334586688492438
 0.5917588753725802 0.617985428837014
 0.6077255762913331 0.636045637165833
 0.6218397827766142 0.6206230844643722
 0.6439190036739765 0.6641208091938152
 0.6244222005398009 0.6306227152759668
 0.6532745054693595 0.6454389036943338
 0.668381104146027 0.6613303810769763
 0.6038400703576976 0.6177357650423388
 0.5986164303680224 0.6120066016394947
 0.6214910745427252 0.6399319371367064
 0.6208531749301729 0.6416731310986139
 0.5924348133759064 0.6581177392714296
 0.6257812132704123 0.6258481849429606
 0.6211197903209051 0.6459645297695275
 0.6104145444342687 0.6283699804861602
 0.6233124967944037 0.6448274251542037
 0.6193366555342321 0.6274975016772875



# name: <cell-element>
# type: matrix
# rows: 100
# columns: 2
 0.4609966331460275 0.4613338055071198
 0.4650966772612168 0.4613338055071198
 0.4744256443025287 0.4613338055071198
 0.4451604108657177 0.4613338055071198
 0.4511113446673951 0.4613338055071198
 0.4610030104417766 0.4613338055071198
 0.4602610361015551 0.4613338055071198
 0.4775587275751542 0.4613338055071198
 0.4700924773211184 0.4572244037995205
 0.4686873076783799 0.4556359639919553
 0.472216666478258 0.4573153522560267
 0.4696666983532753 0.4587538253417149
 0.4783441326648817 0.4594585912758511
 0.4778960826973852 0.468145533936583
 0.479918356089745 0.4711003975853532
 0.4796680911335878 0.4713862803204977
 0.4793669472511068 0.4722573067692955
 0.4774322800625107 0.4718298832207186
 0.4781304194084952 0.4719550503197643
 0.4781115274897235 0.5019071700217581
 0.4789386395505181 0.5063388733968756
 0.4786555425909146 0.5059204215366669
 0.4767212353391538 0.5059019917273012
 0.4777950585447777 0.5057005517534815
 0.4780314917072331 0.5051968206337603
 0.4782089204786374 0.5048787303709799
 0.4780103526935962 0.5050771047573271
 0.4781861867489769 0.5051604141962223
 0.4783863818295099 0.5019548293010987
 0.4785599533589632 0.5009168025410513
 0.4785781762412962 0.5008000213179217
 0.4787828562075542 0.5010610085479579
 0.4786198019972842 0.5011641761365573
 0.4785463184321775 0.5011205660072511
 0.4781811601454888 0.5011063583312334
 0.4781335910294386 0.5010287790505705
 0.4782246954694026 0.5009545357212154
 0.4782297621007408 0.5009764817403592
 0.478234995192918 0.5006894308288183
 0.4783185597781304 0.5010721707933304
 0.4784710389438249 0.5029987386620518
 0.4782974564905059 0.5050448614136193
 0.478305607397053 0.5053423223497241
 0.4783170851007003 0.5052395770800164
 0.4783262774650055 0.5051113784158303
 0.4783132625385754 0.5048019282581689
 0.4782017959236477 0.5064628604560633
 0.478259730631783 0.5067277049241812
 0.4782528124241217 0.5063162825955997
 0.4783304582461988 0.5060662676099724
 0.4782930837909889 0.5101277350346881
 0.4783803027851639 0.5132288891688128
 0.4783546442545427 0.5155460655682074
 0.4783517795086861 0.5175212430176477
 0.4783303418783245 0.5189677384021936
 0.478233730006521 0.5200112464089411
 0.4782208414694339 0.5210425791598872
 0.4782608269029905 0.5195873197998756
 0.4782281435451196 0.5179412479369547
 0.4782357117341511 0.5174524539962166
 0.4782654687182228 0.5179259326142567
 0.4782673898549235 0.5182141702897696
 0.4782846091338618 0.518327771515902
 0.4782754557577142 0.5178377941835527
 0.4782469601894584 0.5179390020585917
 0.4782278374380613 0.5177681565340566
 0.478218557462339 0.5170200226859906
 0.4782469009804124 0.5170344914435679
 0.4782443898045782 0.51786140164626
 0.4782529555275442 0.5186143051667131
 0.4782493933919734 0.5179048168587976
 0.4782612388619324 0.5179350748122793
 0.4782562504037422 0.5177164354242821
 0.4782477943483625 0.5175882815221032
 0.4782324407665803 0.5173824752710969
 0.4782286060295055 0.5173821757120239
 0.4782339692944977 0.517788358690792
 0.4782258897348925 0.5158223555331757
 0.4782377335042163 0.5157636876434224
 0.4782360341178877 0.5157375876136958
 0.4782555941538598 0.5156813415053741
 0.4782576474540726 0.5152684653792718
 0.4782441035061186 0.5128426986173619
 0.4781822304352408 0.5133238861826244
 0.4781921090819416 0.513317959203663
 0.4781848268331334 0.5137569418393173
 0.4781937069917309 0.5141703323475681
 0.478195443453981 0.5141883457082993
 0.4782029007889145 0.5142008417293262
 0.4782049045481544 0.5161780767470114
 0.4782075293095133 0.5174253880989945
 0.4782043718992564 0.5172490298289788
 0.4782049746275573 0.5172479801153356
 0.478213590310496 0.5171636491001778
 0.4782076428904281 0.5184084489766141
 0.4782029786254799 0.5186510279839428
 0.4782009611333755 0.5208194968298678
 0.4782040441469214 0.520982855753534
 0.4782055254099679 0.520914465112466
 0.4782054647883425 0.5215913663405609





# name: PV
# type: cell
# rows: 1
# columns: 5
# name: <cell-element>
# type: matrix
# rows: 100
# columns: 2
 0.5751373612694676 0.4324847955972064
 0.5606139251314464 0.4722718902691462
 0.5285293010805213 0.5999650297885083
 0.4906782298711321 0.5114118732331622
 0.5587093898895945 0.585358104742302
 0.6586341182666287 0.648406449080783
 0.5093583167326359 0.5375703309263229
 0.5788652884414792 0.5328200666274574
 0.4988895077395987 0.5793474327588622
 0.5247557013687639 0.5022875544622092
 0.5610628466185901 0.6031508814399205
 0.4160136661301544 0.6588475073465486
 0.650180235330848 0.6524092577257563
 0.6716205452678771 0.6542649486057219
 0.5242747298458044 0.6609033848601531
 0.6685303492677872 0.6542388481834976
 0.650444070653746 0.6486860280586445
 0.5228125120433815 0.6457674673545198
 0.6811764923746308 0.6640523868788426
 0.6357298614445759 0.6581903280126389
 0.5014623375684722 0.6488711211407137
 0.5311659704833231 0.6559254896031191
 0.5228323189856824 0.6567672377299215
 0.5077346151288868 0.6558606732639359
 0.5448790720925794 0.6630082704229094
 0.4969940206669785 0.6553460671048048
 0.6514359542813528 0.6646571249468765
 0.5733663897918329 0.6693246962950594
 0.5113126650930773 0.6628812108818517
 0.6702095245382148 0.6570414446357093
 0.6898272539049802 0.6468043745911826
 0.6680697582328629 0.6729732520669829
 0.6469820941615017 0.6725037307619353
 0.668487699805179 0.668312382319233
 0.6560554102451891 0.6670990791882719
 0.5921899949592238 0.6749976450107761
 0.4910137084022811 0.6755278824815236
 0.6758417201946848 0.6860634071082136
 0.5288646310303593 0.6772852192403591
 0.6653727182515436 0.6838238602366931
 0.6921262097398212 0.6906805110706393
 0.5357641429258533 0.6770252648652717
 0.4461854809001153 0.6837853610107371
 0.6752414432595519 0.681819296084313
 0.6758204581555401 0.6936455390725329
 0.6838551277282169 0.6888771466922794
 0.644240472343464 0.6528183730154004
 0.697906835105749 0.6812975841525386
 0.5686762991924261 0.6876838462455882
 0.7006608185737202 0.6816129653027253
 0.6220525231356092 0.6798613185145301
 0.6765740515408294 0.6799893261988158
 0.6614655372005673 0.6872031290285947
 0.6804343068042067 0.6958370838361586
 0.6533357794419451 0.6870200308243202
 0.6983298080501031 0.67793898631668
 0.6666902084981897 0.6864646155956999
 0.704311894136563 0.6875609752681864
 0.6722238075783131 0.6909903250344226
 0.6864162219259407 0.6904632823792582
 0.6889106953226429 0.6803034632041538
 0.6986381172168462 0.6954216811835542
 0.6169364903847181 0.6900763942310987
 0.6862906537117022 0.6996495725448924
 0.6983298080501031 0.6923771413284631
 0.6794781869417404 0.6881604039524976
 0.6733487795060824 0.6945683030448723
 0.6803107621511606 0.6928293925046365
 0.6866158217455524 0.6854907909191195
 0.704311894136563 0.6800623793756859
 0.704311894136563 0.694034790865553
 0.6288620515151927 0.6921981754479811
 0.6985135673396494 0.6925512859471833
 0.6632578673094127 0.6862421623283993
 0.6981570426475221 0.6839600569817369
 0.6408786274411629 0.70081528601849
 0.704311894136563 0.6911725414786335
 0.6921262097398212 0.6894406991667654
 0.704311894136563 0.6851473221953777
 0.6788979669098323 0.6939312182634026
 0.6940629588891393 0.6874109425405762
 0.6682416043288665 0.683504707644271
 0.6932392577723236 0.6920969758369729
 0.6921262097398212 0.6833761571615227
 0.5354652295905908 0.6831134632016235
 0.6921262097398212 0.6905112953473795
 0.6905136421784379 0.6889311504036298
 0.6673653667140701 0.6826751074515934
 0.6996608098377082 0.6892321863825627
 0.689595049477134 0.687513075591294
 0.6861441236533613 0.6860653011382422
 0.6866063736980255 0.6868235250760565
 0.6993096925849143 0.6887530743465163
 0.6738973211624534 0.6761853336141985
 0.6873192318308546 0.6942829694811459
 0.5964376392773839 0.7002282487257486
 0.6913349717162772 0.6988156221521574
 0.7030852975277614 0.6985135673396494
 0.704311894136563 0.6985135673396494
 0.7005081892449591 0.6985135673396494



# name: <cell-element>
# type: matrix
# rows: 100
# columns: 2
 0.08737125114642563 0.3794877292071334
 0.3019194719093907 0.4015141054316069
 0.3795856041525226 0.3451578784512526
 0.2513640561765542 0.3908025332743353
 0.2508998315728115 0.3181605342686427
 0.3121805218600407 0.3706073456770365
 0.2362236881617249 0.4323790949919157
 0.1730134201451575 0.3384882930137598
 0.2107642322941061 0.3766523629797401
 0.1452744705772311 0.2669925990580061
 0.4068691368251396 0.2632769714403683
 0.4271565989766941 0.3893980528054337
 0.2852053238554135 0.3526179132361971
 0.4074551029816375 0.2792800234985915
 0.255006935629598 0.3362464779138678
 0.08567107263525325 0.3216772333004997
 0.3512118128794613 0.2340698956371583
 0.2983772331918395 0.3455218041923766
 0.3166122383210443 0.3340144185836088
 0.3434830195971544 0.3238834220729933
 0.4273169760662444 0.342332093618695
 0.1888076257699534 0.353272869901089
 0.406291111705325 0.3710701293193063
 0.3305982299331863 0.3713007081067117
 0.3294631565820522 0.3674221325980602
 0.3508181883682254 0.3556931880921554
 0.3719003536402183 0.3713479333642338
 0.2830791989447674 0.3777113872531072
 0.4149006823099549 0.3620051556433492
 0.06266049284858033 0.3620051556433492
 0.2774514845946641 0.3620051556433492
 0.3372950033193393 0.3620051556433492
 0.3999899004685241 0.3620051556433492
 0.2563538434201685 0.3620051556433492
 0.4675594796141235 0.4065336525865467
 0.3786073553343404 0.4159467991255911
 0.405992471808334 0.4050487853851379
 0.4126007630841825 0.4107791863016698
 0.4331649465986522 0.3734032180191228
 0.3840487314679101 0.4183380125650497
 0.3688320736423257 0.4205880668639409
 0.3611122864612689 0.3758109087884884
 0.4096659551073354 0.4002333407025657
 0.4538112532027281 0.3883901484326933
 0.456223958225178 0.3757083717165726
 0.4067660368276188 0.3870048907161228
 0.4177945160705993 0.4157719698231875
 0.3940507528454308 0.4186403598162155
 0.3052882593985711 0.4037461656587614
 0.4183064812373258 0.4323925553369568
 0.4475146440573977 0.3995849819498255
 0.3807566013684661 0.4235048690949079
 0.2938572725537722 0.4187582649869919
 0.424957231100493 0.4324455733341223
 0.3622161516853885 0.4071637670686163
 0.379306636418425 0.3963373870908255
 0.4001062233213259 0.3858468562675899
 0.414948375909725 0.4201107373169911
 0.3738134117131057 0.4076176985346002
 0.3507910862972489 0.4109476164922476
 0.3611122864612689 0.3482601174349499
 0.3856693733149856 0.3610678397565761
 0.3719003536402183 0.3620051556433492
 0.4099211432525424 0.3450112866277054
 0.363415159926123 0.3465020959260318
 0.3620051556433492 0.3687813253685175
 0.3586403962506851 0.3389012644305525
 0.3799087401940715 0.3601041572336923
 0.2813092959186632 0.3512304268281213
 0.3702128580479525 0.3372950033193393
 0.3719003536402183 0.3392862948362908
 0.3522191681691946 0.3419870095431057
 0.2833972608738589 0.3395647678552307
 0.3137751454879354 0.3372950033193393
 0.336408686259157 0.3372950033193393
 0.4374879671466532 0.3380507333597038
 0.2837253105943212 0.3473067859149339
 0.367428205854333 0.3372950033193393
 0.3562155344424852 0.365505087109
 0.2864346212305838 0.3372968561282698
 0.4078457769614023 0.3372950033193393
 0.3387636711851677 0.3482507519905615
 0.4268510387510286 0.3480965817502982
 0.3522669937363215 0.3539054043783374
 0.299600932983941 0.3372950033193393
 0.3514002484592831 0.345385701724924
 0.3620051556433492 0.3372950033193393
 0.2875030695532085 0.3514169491765302
 0.4146374721857398 0.3643316035117444
 0.4537735695828825 0.3394635681283035
 0.3611044905184691 0.3996972869441254
 0.3933982546835434 0.4136183819751708
 0.4472444567675891 0.4374542195048439
 0.2986951544816946 0.4206506379907881
 0.4235469276918025 0.3998942323217273
 0.4183064812373258 0.396853117256721
 0.362797079736664 0.4056841022115078
 0.3286366463055787 0.3953210182453701
 0.320125890164198 0.4279820512342897
 0.3870310063151948 0.3781403228478444



# name: <cell-element>
# type: matrix
# rows: 100
# columns: 2
 -0.1801466677266954 0.2164678024989239
 0.1188280944059381 0.07514707558771924
 -0.04344320595492968 0.1643661074407778
 0.0893540095294425 0.07821584390687261
 0.1741624264118689 0.05081558824410692
 -0.06223265954786417 0.09033312274960795
 0.06185893943947621 0.07284416247909328
 -0.1490412332421961 0.1902301917101819