# Created by Octave 4.0.0, Wed May 09 11:37:51 2018 CEST <olethros@olethros-OptiPlex-9010>
# name: results
# type: struct
# ndims: 2
 1 5
# length: 8
# name: options
# type: cell
# rows: 1
# columns: 5
# name: <cell-element>
# type: scalar struct
# ndims: 2
 1 1
# length: 8
# name: A
# type: scalar
2


# name: X
# type: scalar
8


# name: Y
# type: scalar
2


# name: Z
# type: scalar
2


# name: lambda
# type: scalar
0


# name: n_iter
# type: scalar
100


# name: horizon
# type: scalar
100


# name: n_samples
# type: scalar
1





# name: <cell-element>
# type: scalar struct
# ndims: 2
 1 1
# length: 8
# name: A
# type: scalar
2


# name: X
# type: scalar
8


# name: Y
# type: scalar
2


# name: Z
# type: scalar
2


# name: lambda
# type: scalar
0.25


# name: n_iter
# type: scalar
100


# name: horizon
# type: scalar
100


# name: n_samples
# type: scalar
1





# name: <cell-element>
# type: scalar struct
# ndims: 2
 1 1
# length: 8
# name: A
# type: scalar
2


# name: X
# type: scalar
8


# name: Y
# type: scalar
2


# name: Z
# type: scalar
2


# name: lambda
# type: scalar
0.5


# name: n_iter
# type: scalar
100


# name: horizon
# type: scalar
100


# name: n_samples
# type: scalar
1





# name: <cell-element>
# type: scalar struct
# ndims: 2
 1 1
# length: 8
# name: A
# type: scalar
2


# name: X
# type: scalar
8


# name: Y
# type: scalar
2


# name: Z
# type: scalar
2


# name: lambda
# type: scalar
0.75


# name: n_iter
# type: scalar
100


# name: horizon
# type: scalar
100


# name: n_samples
# type: scalar
1





# name: <cell-element>
# type: scalar struct
# ndims: 2
 1 1
# length: 8
# name: A
# type: scalar
2


# name: X
# type: scalar
8


# name: Y
# type: scalar
2


# name: Z
# type: scalar
2


# name: lambda
# type: scalar
1


# name: n_iter
# type: scalar
100


# name: horizon
# type: scalar
100


# name: n_samples
# type: scalar
1







# name: PU
# type: cell
# rows: 1
# columns: 5
# name: <cell-element>
# type: matrix
# rows: 100
# columns: 2
 0.5308968537367463 0.4820389823378961
 0.5318935352533585 0.4820389823378961
 0.5542696329617349 0.4812210350277551
 0.4448841840411834 0.5501517411452659
 0.5277578616380749 0.4624014895752024
 0.6358204459252906 0.4871567647430705
 0.6023873325535593 0.5170734988904097
 0.6371305193319801 0.6238155081718768
 0.4131513266130558 0.5800292876332699
 0.5323572755838297 0.5896703182319636
 0.6428077400809508 0.6279385774402106
 0.5990212844191322 0.5771443832855688
 0.6277115340625462 0.5410529693970709
 0.6283513915020923 0.6231322099932102
 0.5522601033161648 0.5437903799019309
 0.6210676949041519 0.5282523602140711
 0.5164855804643506 0.5056052806451735
 0.606044097085045 0.5883100672738381
 0.5641093698580669 0.4804179255508468
 0.6104191483291808 0.4980771243046951
 0.639472898490303 0.4592525812504303
 0.5540030088717725 0.4776774408324269
 0.5015829465098758 0.5024923706481123
 0.6364946957175345 0.4791081380288154
 0.5914883853668786 0.4529346376100145
 0.6566062374262198 0.5037012350498954
 0.5893541904255244 0.519393422556664
 0.5615607672000157 0.5145900969186542
 0.5864707055217807 0.5173880502261557
 0.5671685686354968 0.5257192948455712
 0.4796959884767515 0.5045093461947137
 0.6373358958740764 0.5258867897640335
 0.591323078968937 0.5273631289161674
 0.5388106958851387 0.5201721004641761
 0.5673753387679563 0.5043079814264456
 0.538671582681272 0.5266454027509678
 0.5730816153474441 0.5390344107138002
 0.6402159884866536 0.5016886123827244
 0.6542060603345463 0.534847384408514
 0.6232106416711559 0.5152293671296864
 0.5743234891356287 0.535076996752903
 0.6581282647880359 0.5532352362627265
 0.6180203742616307 0.554575036745538
 0.5947092662182091 0.5407027235541989
 0.7177399657412203 0.5612410568362721
 0.6344035537739812 0.5339777860296022
 0.6413933038917389 0.5421828827502279
 0.7130929264062039 0.5531649381957036
 0.6518763181556394 0.5890592821928891
 0.5934212146475077 0.5546956431556765
 0.6662677467295192 0.5838286986872108
 0.4966945046769978 0.5891290535319382
 0.6869621860682119 0.5989500459279958
 0.6506476249603904 0.5763233201416043
 0.5646025889553075 0.5697183581611253
 0.6248091553676987 0.5948080201048201
 0.6777169084064397 0.5762212059785343
 0.5938722496112426 0.5806287642601694
 0.6621829914609028 0.6031812161035371
 0.6781912602877975 0.5675586128826007
 0.6649954866807322 0.5906722542316898
 0.627933342170344 0.5792418572976059
 0.6488261791444733 0.5706808024575951
 0.7043468060721222 0.5800765119454359
 0.6488261791444733 0.5656864366342135
 0.6225365683690413 0.5312853514964352
 0.6779417227300966 0.5731230991276139
 0.6165093005127972 0.579744781540549
 0.6281632563554569 0.5557786378501768
 0.6053007598669408 0.5539603601212484
 0.6540954220582132 0.5569530682498042
 0.627420016131368 0.5463695734209303
 0.6143345143138098 0.5377397484233273
 0.5827624978407646 0.5571551345251542
 0.6869621860682119 0.5329062213718515
 0.6260198231529083 0.542524882590363
 0.6431786731760208 0.5668264575902132
 0.6895374067209651 0.5704418093498819
 0.6047014656075919 0.5715605512581216
 0.5840341025488517 0.5815933300999797
 0.6155991762896221 0.5743518846344412
 0.6066350205109445 0.5751637782336489
 0.5843661094490145 0.5566807539084399
 0.6431786731760208 0.5731299819824902
 0.6555684613130298 0.5766902860576714
 0.6557316241752058 0.5914789163253179
 0.6505143130301344 0.5911113441055262
 0.584072086033935 0.590736149280763
 0.67171720034241 0.5914632958741773
 0.6869621860682119 0.5903142091505226
 0.6260320624823985 0.5879999459358518
 0.6686373182521032 0.5805190454560036
 0.6869621860682119 0.5910104198723241
 0.6256424658189202 0.5910306341203787
 0.6431786731760208 0.5913772185614279
 0.6349909206237515 0.5911651846224139
 0.6734608956818016 0.5907292287878353
 0.5602564421771516 0.5783666030403559
 0.6487000937143568 0.5912592955289441
 0.6410273299985265 0.5905571945416913



# name: <cell-element>
# type: matrix
# rows: 100
# columns: 2
 0.550689168521814 0.5288087777393744
 0.5096814247102009 0.5288087777393744
 0.582546777420574 0.5288087777393744
 0.5702450798163804 0.5288087777393744
 0.668375358657575 0.5288087777393744
 0.4643287856868093 0.5288087777393744
 0.5964238163273702 0.5288087777393744
 0.5520970917449003 0.5620242484148589
 0.598120046533444 0.6610387038446465
 0.4270062206285332 0.6434672567600559
 0.6232790666300575 0.6310390054178737
 0.6155518666781907 0.5994856074220121
 0.650499402449746 0.6161680100866063
 0.5856598860364229 0.5200530516546579
 0.5789771955871357 0.5456942624618548
 0.4958346377807965 0.6135063603194105
 0.6389837714092039 0.6311715395805808
 0.4484561810084184 0.5981569214479838
 0.5386295716898392 0.6075999349777252
 0.5338568842409289 0.5930602400941379
 0.5922762190183467 0.5519248953883001
 0.5590831209457593 0.5362108069070443
 0.4923903459535536 0.6039641602866094
 0.550472321310007 0.5968862723837574
 0.576063735178783 0.6118706820532918
 0.4784184846429211 0.6081646869077073
 0.6244228755165196 0.62978611170678
 0.4538543696004911 0.6333955926775704
 0.5513958650932208 0.6195299900734637
 0.7025516441102465 0.6006014779219241
 0.6464805454118324 0.6561562129765494
 0.6276025351662651 0.6076099253879279
 0.5704968904843806 0.6425966597470556
 0.6110849564898299 0.6013738436305331
 0.6494253649925401 0.6175733437544846
 0.6760517275655967 0.6230687224757724
 0.6891642605578748 0.6546111710250648
 0.6209891620143809 0.6256128792056571
 0.637980605344684 0.6535457135022141
 0.666406364396531 0.6415279649699025
 0.6132550115025157 0.6361524977769366
 0.655034461223958 0.620324608873159
 0.5705441647710002 0.6236802991519808
 0.6549063725908079 0.6309860046038359
 0.5402973934337512 0.6699965720899884
 0.6134566246809592 0.6500348946447525
 0.6808078015645413 0.6859613474085396
 0.6075099465370625 0.6398747317385031
 0.6847326099653772 0.6529405451690082
 0.6354186929341457 0.6441056814864404
 0.5794406626536369 0.6333417396017104
 0.6051809079991478 0.6741442370313505
 0.672840032939675 0.6410635840477897
 0.6276008353851334 0.6438290168868755
 0.7116434609504599 0.6481545791843807
 0.6341264618036847 0.6583336340761284
 0.630680586575996 0.6195679662418552
 0.6501590758889758 0.6782276764637902
 0.6317811027672499 0.6187043764526117
 0.6075320472304219 0.6314430581655981
 0.6489098593381833 0.6329672588014487
 0.7167232854907263 0.6238752763396821
 0.6526080872250249 0.6360550459633855
 0.6512459359789577 0.6534429286860675
 0.6194947130001028 0.6614896217876863
 0.6349737476721729 0.6350413782996162
 0.6748454796745874 0.6121354815071872
 0.6356980358481361 0.6669406594104311
 0.6574534442531071 0.6520031200983355
 0.6190365087859633 0.6325123949712083
 0.6102599396841631 0.634999746147906
 0.616371616291845 0.6512295494232755
 0.6419407907813949 0.6765809673228208
 0.653271222801195 0.6670709345327047
 0.6441236667664026 0.6097940641188401
 0.6961681120823212 0.6469511538409861
 0.5612610799902984 0.635236524544219
 0.6193558962336617 0.63830310185273
 0.5798376218353094 0.6274575534566592
 0.6235859421974873 0.6128199426023521
 0.6441580977270159 0.6304703016412603
 0.6851685168637464 0.6355472105382122
 0.7008383013776184 0.6120807055290113
 0.6618206779602736 0.6249253601729335
 0.6268510855965798 0.6412716324335451
 0.6540353485115796 0.6607532193709583
 0.6840837305529396 0.6222285434170557
 0.6275832826235195 0.6141573812543619
 0.64057451697277 0.6477383769552288
 0.6923355649622798 0.6310517472453793
 0.6157525110481815 0.6347993804997042
 0.6855961380541863 0.6379026763274503
 0.6529348059790711 0.6558543958680507
 0.7081357317134648 0.6692665250075746
 0.6538340304123916 0.6207421236853189
 0.708120798480638 0.6534482838271097
 0.6137709008845408 0.6387536862403079
 0.6819563327663493 0.647286562913393
 0.674002828710228 0.6097349309298744
 0.6222715800068258 0.6536699080384358



# name: <cell-element>
# type: matrix
# rows: 100
# columns: 2
 0.5310394718640465 0.4980010660803559
 0.4859982273330559 0.4980010660803559
 0.6664169985391383 0.4980010660803559
 0.5946038455358178 0.50295791017587
 0.5972217247559827 0.5528067708928044
 0.4016548194193194 0.5133596663657616
 0.4683383618102941 0.4607983463421925
 0.4961966563990105 0.4756117431450843
 0.4240364917911592 0.4379303679758548
 0.3799376485084613 0.5330137052547139
 0.4823975937990405 0.4936209192012792
 0.4226317029137483 0.4724880358081315
 0.5904432313474854 0.4887869584247654
 0.5772549534924402 0.5298187764313208
 0.4478581249013312 0.478361415740051
 0.589177886914286 0.5159538315905303
 0.4773717330130739 0.4703837336118289
 0.4448388669563279 0.5114667262557235
 0.5900077084405992 0.5369319600868732
 0.5838775805273747 0.4912121698259929
 0.4694989845281225 0.4921433098376299
 0.5451616119196582 0.5094030379795369
 0.5071272569976638 0.4920371717712854
 0.4432932073038337 0.4935365493853615
 0.4989053187122754 0.5404568818706297
 0.5464770290834322 0.4891399602985624
 0.5367111718183263 0.5672272648949634
 0.5064916983738611 0.5409941972750241
 0.5902527086480327 0.5738866991044151
 0.552338458962825 0.5709488311641885
 0.4685053869877652 0.5553556734049209
 0.4833493869356995 0.554523645041998
 0.4199210165857331 0.5592953792044905
 0.4258285760146506 0.5682881207441527
 0.549671763840297 0.5537208699775015
 0.5315368904707041 0.5073444423012435
 0.5579571372198012 0.5839552980688001
 0.5327602677851991 0.5684606587460904
 0.5828174330640313 0.5809774751403178
 0.5557532762327391 0.5835033005083864
 0.4855633837136148 0.5834506760058685
 0.4708378926315244 0.5724121838750653
 0.5544859852841619 0.5378516186948349
 0.5483650414219317 0.5835161752634016
 0.5486471326878346 0.5845201469145205
 0.5328898004338379 0.5840030152845056
 0.5900297418256951 0.5832577401287834
 0.5547701126684422 0.5841222068056997
 0.509434446654123 0.5832295746581165
 0.5255615121791559 0.5837193159254447
 0.5113710801671901 0.5795760432932474
 0.4736524782241627 0.5846606559404093
 0.5915994463525795 0.5836988925544877
 0.6109870453824687 0.5833395866573053
 0.5621784593220197 0.5837817416857368
 0.572329503950723 0.583366479097726
 0.6177891368993443 0.5840515603869114
 0.5269033359098637 0.5833495992088419
 0.5478687789613637 0.5846878595380198
 0.5488711307105143 0.5840726920906015
 0.4342905619179228 0.5785736156567961
 0.5574490032654684 0.5841135878288095
 0.5475456520746337 0.5818446134409567
 0.5058350541623012 0.583935964823233
 0.54835550290332 0.5834351494264833
 0.5969944679288344 0.5839241960130631
 0.5612699551900102 0.5824307255441969
 0.5245865591593859 0.5791522224709589
 0.5771656235306741 0.5832639845593603
 0.5417455095513878 0.5821893104403865
 0.4470209598821585 0.5680862755460873
 0.6514777963465131 0.5842118421269628
 0.577283193925859 0.5698953474601822
 0.6253850821953151 0.5695620426574738
 0.5708262189851396 0.5837922390021774
 0.6091754909052913 0.5845349489316943
 0.6027024720382461 0.5838547391804562
 0.5704418331518923 0.5598345645355697
 0.6029810172736881 0.5721039975146005
 0.6340092017697815 0.5842792273824435
 0.44129283558076 0.5562198553835402
 0.4611257984774839 0.576235964790635
 0.4694601866718233 0.5835432678884713
 0.4940058662672424 0.5845606144340596
 0.5896528068369158 0.583072338907407
 0.6470391082660799 0.5839262928144175
 0.5465716909307469 0.5805160938629004
 0.4949760894218117 0.5781219642271027
 0.5428656593010974 0.5425071125432942
 0.6044751122075669 0.5729621046012902
 0.6166754658988024 0.5832057931853699
 0.5296325423574173 0.5834880889479953
 0.6470141422218803 0.5764185144608417
 0.4912250379473428 0.5841356593868607
 0.6547281101973254 0.5834468299403632
 0.4280822059370765 0.5834493134182257
 0.5709889182340963 0.583902932131844
 0.535250924795229 0.5805626707052085
 0.5101872993626582 0.5839010751486325
 0.596711611372709 0.5267182184296518



# name: <cell-element>
# type: matrix
# rows: 100
# columns: 2
 0.4149773085344343 0.4561237223240981
 0.4656447419414266 0.4799885250919549
 0.4031722313865364 0.4827728262460026
 0.4899854571745065 0.482747894242193
 0.4478223177182386 0.4778134293126646
 0.4834469046725647 0.4778054205434871
 0.4473798433859955 0.4778054128819463
 0.5115255415621541 0.4837843975820078
 0.5421057414502792 0.5392680022948088
 0.5424104424158096 0.5350211380280016
 0.5281216796025473 0.5658665631837319
 0.5316751782820808 0.5839483130311172
 0.5541495776076243 0.6002965605570159
 0.6392056913168576 0.5648637306241249
 0.4141887946079496 0.6318872070946747
 0.5210128085297729 0.5496685396431384
 0.5575857460753635 0.5422828802164343
 0.6174802443541449 0.5512392908301015
 0.5943649165455073 0.5577283836054521
 0.551837412706257 0.5292940267554616
 0.5265131256340049 0.5115652656189853
 0.6182620244165461 0.5608334740141863
 0.4324003568761119 0.5368459691071383
 0.6330677764922519 0.5777647138043507
 0.6047976901902579 0.5032785084250675
 0.6187382326318992 0.5154198698842943
 0.5443589194865578 0.515535678147494
 0.6495389437764197 0.5712119448820336
 0.6454189738052453 0.5649772692144356
 0.5669301910617691 0.546429831313565
 0.5966947847943114 0.5260057599602974
 0.4932405902448497 0.500339337706855
 0.6395812840503625 0.5747537071252528
 0.605826204573707 0.540266421185124
 0.5485601455776641 0.530159529559962
 0.5730805307218518 0.5066455706026308
 0.6186978847754493 0.5483742966643218
 0.5224003829581835 0.5470796077716135
 0.6630961480266028 0.505371547245453
 0.5465494644787421 0.5541005766156218
 0.5922706260103497 0.5632507127993911
 0.6678123938784133 0.515145087255757
 0.6074263639164357 0.5633358816261017
 0.6455832660814746 0.5546161566273483
 0.5472689761940674 0.5437735459942289
 0.6168859832916537 0.5653896665278547
 0.5734799457497554 0.5105345725386645
 0.6773522842924625 0.5254912456652878
 0.5852683295598547 0.577396675327643
 0.592009639894713 0.5521977172745605
 0.6517723289754517 0.5518431093424527
 0.534476423605095 0.5830537015242915
 0.6421779145903956 0.5995671822040408
 0.6096143805081654 0.5817942921819196
 0.5227052720137884 0.5764103738189156
 0.5949734056225876 0.5592245536794033
 0.5998147071880141 0.5428507065789673
 0.6469618134898097 0.5625509823165457
 0.6020591639382629 0.5528132922102762
 0.6201517911467384 0.5372940803312759
 0.6110923775329566 0.5501591093732801
 0.6117521469742161 0.5984887174999453
 0.6388191348377675 0.5579210839631392
 0.6546166306043247 0.5894382932965684
 0.6176909787291101 0.5376877080679872
 0.6226605774719484 0.5563504203179784
 0.6134420216178232 0.5917319312358148
 0.6338488115435631 0.5422841807609111
 0.6561849491236118 0.5883293077480362
 0.6339397873462393 0.5881139098715491
 0.6547956186019178 0.5959448044280607
 0.63225793110379 0.628528725907577
 0.5822219197026193 0.5413246073292858
 0.6756395172747655 0.6101286249640431
 0.6560568098989296 0.5980648322736711
 0.5615694876273186 0.5828472159549073
 0.6112687700779272 0.5888905967663983
 0.6273314648402563 0.563970904675831
 0.6526906617849287 0.5811758055411215
 0.661379775668124 0.5531180214426621
 0.654431839487178 0.5943388663305941
 0.5985711733864088 0.6037728820860142
 0.5780006931886237 0.5912534622115239
 0.6463115000218479 0.5471159017166201
 0.6178477954068433 0.5560516719967378
 0.6379976663614051 0.5604437348879806
 0.5904078708784756 0.5923568772787026
 0.644912205445458 0.5994507937224434
 0.6206861661223834 0.603960943534264
 0.5935085486659897 0.6190406659168357
 0.6095563839840558 0.6380626408447929
 0.5854988622992402 0.5842481153949252
 0.5946466467598556 0.6064725770228802
 0.6652249005001397 0.6129286669008542
 0.6412479252070371 0.6312967202434032
 0.5756118071122476 0.6419037122834874
 0.6068888909575648 0.6358142273368013
 0.5901842630616401 0.631409913872118
 0.66659664337934 0.6507282840202646
 0.6242071729369753 0.628157841900175



# name: <cell-element>
# type: matrix
# rows: 100
# columns: 2
 0.4779907127502709 0.4769453859777603
 0.4737963876858686 0.4771807793325289
 0.4590936873152762 0.4774821977377924
 0.4569719688090386 0.4877414943315674
 0.4559466354106838 0.4825591397594777
 0.4579108664519444 0.4811107904397137
 0.4577241421803656 0.4885134283373549
 0.4685945690376505 0.4907356782485513
 0.4655301931263526 0.4967660580593761
 0.467463656037369 0.5010883872044531
 0.4713348237865708 0.5026252555455041
 0.4726879662299484 0.5028797784447494
 0.4724380987944373 0.4969344295354085
 0.4711667869049206 0.4971887694478716
 0.4707221818904118 0.4971768566877159
 0.4708373584586399 0.4972157157338383
 0.4713131357115238 0.4986905681196441
 0.4710451212889002 0.49966014737199
 0.4703956924535225 0.4993925288317368
 0.4690888214825 0.5003788571520714
 0.4690400777536102 0.5013055156448804
 0.4689864245560162 0.5036085064210901
 0.4687696449273961 0.5036079980743612
 0.4686987575783553 0.5039677538990889
 0.4690068496869997 0.5033795328311591
 0.4688141797766746 0.5033255877760812
 0.46873267763912 0.5029965658908868
 0.4687234538269638 0.5027704139691593
 0.4686857837775159 0.502443215646154
 0.4688649032604779 0.5023170265743795
 0.4689659151004137 0.5022108060395677
 0.4689403219807227 0.5010240584411931
 0.4688637795612575 0.50078227179713
 0.4689730175117582 0.5011204155767639
 0.4689347042177395 0.5018381329769408
 0.4689259565692874 0.4982940679350835
 0.4689644402502203 0.4988877840725717
 0.4689053075294282 0.5041063204224568
 0.468914171275212 0.4995151728937888
 0.468949569227148 0.4974810430283508
 0.4689377446027137 0.4954384125831883
 0.4689306399926647 0.4910492527602145
 0.4689382031834906 0.4879139216879261
 0.4689390769138811 0.4857879330524624
 0.4689332599004976 0.4841163078787833
 0.4689227644915198 0.4850246423459006
 0.4689467659740702 0.4857537122996538
 0.4687571567994504 0.4863600654899392
 0.4687852008447441 0.4866767066218314
 0.4689325494871863 0.4889311742210182
 0.4688497567315134 0.4893770352248943
 0.4688795077041982 0.4884616822164701
 0.4688753004585891 0.4883607024618934
 0.4688857659893771 0.488492431007914
 0.4688776751232256 0.4887067956142975
 0.4688743873357846 0.4886811239583673
 0.4688761750462329 0.4875554630504993
 0.4689098477013899 0.4878814609569457
 0.4689089337821951 0.4878337483751125
 0.4688997238022778 0.4874573646485126
 0.4689121698356834 0.4849692020330653
 0.4687752518805424 0.4844140040524162
 0.4688137468289544 0.4842160085896472
 0.4688393624503513 0.4843175136392368
 0.4688358654047896 0.4839452831409505
 0.4688325427359507 0.4840908993225722
 0.4688461306214053 0.484042245537777
 0.4688628746156209 0.4824897055440734
 0.4688520967970433 0.4829426359580122
 0.4688992634617143 0.4831472086602771
 0.4689025145176447 0.4832096733787241
 0.4689046613054192 0.4855503278910741
 0.4688876244000573 0.4857733261343573
 0.4688925919278065 0.4855262684307523
 0.4688855358377914 0.4859617809074105
 0.4688932341889108 0.4859869927024559
 0.4688956518194167 0.4846314631962316
 0.4688959422272337 0.4846607834167858
 0.4688819520562331 0.4846468889640963
 0.4688777780582581 0.4872106440732183
 0.4688692971064681 0.4874889498349501
 0.468876306716296 0.4891706608886677
 0.4688400845468317 0.4891012989518688
 0.4688747882101575 0.4892154653616613
 0.4688802068845249 0.4881247763464288
 0.4688924641327068 0.4885420728294439
 0.4688840110140052 0.4887622212851389
 0.4688811763979751 0.4889043902927802
 0.4688852469713119 0.4900072144132847
 0.4688857109069842 0.4898191157298078
 0.4688850065451217 0.4897265019757751
 0.4688834469965028 0.4894293645355617
 0.4688818079162128 0.4891636860976922
 0.4688832402642186 0.4889188691698773
 0.4688937324546084 0.4904774370293905
 0.4688864909030494 0.4908239866936176
 0.4688739586004099 0.4909676141936071
 0.4688933616856209 0.4901479865227589
 0.4689119923702343 0.4897887082407063
 0.4689141393252065 0.4901178862383466





# name: PV
# type: cell
# rows: 1
# columns: 5
# name: <cell-element>
# type: matrix
# rows: 100
# columns: 2
 0.5308968537367463 0.4820389823378961
 0.5318935352533585 0.4820389823378961
 0.5542696329617349 0.4812210350277551
 0.4448841840411834 0.5501517411452659
 0.5277578616380749 0.4624014895752024
 0.6358204459252906 0.4871567647430705
 0.6023873325535593 0.5170734988904097
 0.6371305193319801 0.6238155081718768
 0.4131513266130558 0.5800292876332699
 0.5323572755838297 0.5896703182319636
 0.6428077400809508 0.6279385774402106
 0.5990212844191322 0.5771443832855688
 0.6277115340625462 0.5410529693970709
 0.6283513915020923 0.6231322099932102
 0.5522601033161648 0.5437903799019309
 0.6210676949041519 0.5282523602140711
 0.5164855804643506 0.5056052806451735
 0.606044097085045 0.5883100672738381
 0.5641093698580669 0.4804179255508468
 0.6104191483291808 0.4980771243046951
 0.639472898490303 0.4592525812504303
 0.5540030088717725 0.4776774408324269
 0.5015829465098758 0.5024923706481123
 0.6364946957175345 0.4791081380288154
 0.5914883853668786 0.4529346376100145
 0.6566062374262198 0.5037012350498954
 0.5893541904255244 0.519393422556664
 0.5615607672000157 0.5145900969186542
 0.5864707055217807 0.5173880502261557
 0.5671685686354968 0.5257192948455712
 0.4796959884767515 0.5045093461947137
 0.6373358958740764 0.5258867897640335
 0.591323078968937 0.5273631289161674
 0.5388106958851387 0.5201721004641761
 0.5673753387679563 0.5043079814264456
 0.538671582681272 0.5266454027509678
 0.5730816153474441 0.5390344107138002
 0.6402159884866536 0.5016886123827244
 0.6542060603345463 0.534847384408514
 0.6232106416711559 0.5152293671296864
 0.5743234891356287 0.535076996752903
 0.6581282647880359 0.5532352362627265
 0.6180203742616307 0.554575036745538
 0.5947092662182091 0.5407027235541989
 0.7177399657412203 0.5612410568362721
 0.6344035537739812 0.5339777860296022
 0.6413933038917389 0.5421828827502279
 0.7130929264062039 0.5531649381957036
 0.6518763181556394 0.5890592821928891
 0.5934212146475077 0.5546956431556765
 0.6662677467295192 0.5838286986872108
 0.4966945046769978 0.5891290535319382
 0.6869621860682119 0.5989500459279958
 0.6506476249603904 0.5763233201416043
 0.5646025889553075 0.5697183581611253
 0.6248091553676987 0.5948080201048201
 0.6777169084064397 0.5762212059785343
 0.5938722496112426 0.5806287642601694
 0.6621829914609028 0.6031812161035371
 0.6781912602877975 0.5675586128826007
 0.6649954866807322 0.5906722542316898
 0.627933342170344 0.5792418572976059
 0.6488261791444733 0.5706808024575951
 0.7043468060721222 0.5800765119454359
 0.6488261791444733 0.5656864366342135
 0.6225365683690413 0.5312853514964352
 0.6779417227300966 0.5731230991276139
 0.6165093005127972 0.579744781540549
 0.6281632563554569 0.5557786378501768
 0.6053007598669408 0.5539603601212484
 0.6540954220582132 0.5569530682498042
 0.627420016131368 0.5463695734209303
 0.6143345143138098 0.5377397484233273
 0.5827624978407646 0.5571551345251542
 0.6869621860682119 0.5329062213718515
 0.6260198231529083 0.542524882590363
 0.6431786731760208 0.5668264575902132
 0.6895374067209651 0.5704418093498819
 0.6047014656075919 0.5715605512581216
 0.5840341025488517 0.5815933300999797
 0.6155991762896221 0.5743518846344412
 0.6066350205109445 0.5751637782336489
 0.5843661094490145 0.5566807539084399
 0.6431786731760208 0.5731299819824902
 0.6555684613130298 0.5766902860576714
 0.6557316241752058 0.5914789163253179
 0.6505143130301344 0.5911113441055262
 0.584072086033935 0.590736149280763
 0.67171720034241 0.5914632958741773
 0.6869621860682119 0.5903142091505226
 0.6260320624823985 0.5879999459358518
 0.6686373182521032 0.5805190454560036
 0.6869621860682119 0.5910104198723241
 0.6256424658189202 0.5910306341203787
 0.6431786731760208 0.5913772185614279
 0.6349909206237515 0.5911651846224139
 0.6734608956818016 0.5907292287878353
 0.5602564421771516 0.5783666030403559
 0.6487000937143568 0.5912592955289441
 0.6410273299985265 0.5905571945416913



# name: <cell-element>
# type: matrix
# rows: 100
# columns: 2
 0.329516903471942 0.3009630399236541
 0.1900338711637938 0.3009630399236541
 0.3294635152085458 0.3009630399236541
 0.2046052404599834 0.3009630399236541
 0.3205105920024902 0.3009630399236541
 0.1312144241178617 0.3009630399236541
 0.2795415841849465 0.3009630399236541
 0.314661244817904 0.3115564889231835
 0.3392676015181606 0.2700944209430253
 0.156650361795201 0.2398401755571449
 0.2872107408087933 0.2048510694969113
 0.1877659468845739 0.21081265664018
 0.2607781364118212 0.1914951820985951
 0.1494435744738818 0.2178318671128499
 0.3630091487466059 0.190130127681774
 0.1221992155003446 0.199047910893403
 0.2330943406009132 0.1866749628882422
 0.1313140383327275 0.1589074406283361
 0.196510096206037 0.1656932167282235
 0.2104076340954036 0.2154714951557107
 0.3501591422402368 0.180638622611876
 0.370292418001453 0.2029903451984515
 0.2208332558492364 0.1634513288740187
 0.1831406924243486 0.1583106029123174
 0.1985785288967711 0.1683325738108556
 0.2798829574388481 0.1667663203175605
 0.2206039259457473 0.1846481806694281
 0.1380229829051678 0.1879663221749688
 0.1980417917391118 0.1774802158014386
 0.3425512235281754 0.1600728124972132
 0.1972370307442601 0.206519834156024
 0.1820925843290947 0.1675008981850518
 0.3664472601699559 0.1951720285202748
 0.1896328722632207 0.1610157749894299
 0.2482874880444852 0.1740144752773242
 0.2228276974338264 0.1797633636153484
 0.3117099914013857 0.2039122394337326
 0.1766457670700259 0.1814228687034355
 0.3954821871353765 0.2044023772861691
 0.253751396683657 0.1931900873468925
 0.3916027986922196 0.1888457635896563
 0.2334034687419596 0.1758806332988948
 0.2519016207641351 0.1784820450416377
 0.2922467451090822 0.1858787754676462
 0.2985331763592531 0.2170427933405081
 0.3982244496059046 0.2028203224169611
 0.2924307659180335 0.2304069766191894
 0.3571772460289005 0.1927361349803559
 0.2699046768488581 0.2024003467745475
 0.1899245715976219 0.195774740761547
 0.3333258005358555 0.189255183237521
 0.3480566974799903 0.2205298110639993
 0.2838582656182246 0.1917124355160297
 0.3736911443812191 0.1939442321995632
 0.3410446569287821 0.199133168336578
 0.1949787793893054 0.2069457186758346
 0.2258449091801364 0.1771715364056577
 0.2029222683030384 0.2235174038033073
 0.1887899963563473 0.1745819791478302
 0.1831192047586937 0.1853941314943989
 0.2197274792796041 0.1864155964386097
 0.2961145629340394 0.1802351647204484
 0.2596271315635034 0.18790469559425
 0.2014784851587565 0.2045672330059951
 0.2294105693550145 0.2102096000749705
 0.2300749471427053 0.1889238430384758
 0.2514563585797603 0.1710818319354654
 0.2879696601885179 0.2131814389954488
 0.4344161255626069 0.201318322497045
 0.4162434440464818 0.1867446921159251
 0.1694714614773238 0.1904918723170076
 0.1749576258290824 0.2035817023551609
 0.2555177381498209 0.2220918702594254
 0.2013204251359045 0.2149032659368463
 0.1943855919148952 0.1682304566689538
 0.2904151293211912 0.1976876319683607
 0.286942184450585 0.1888320462006882
 0.3362687326122912 0.1909288603712571
 0.2379483215728656 0.1827018402189441
 0.1940350596156383 0.1694852994028508
 0.253144790667987 0.184103943146295
 0.2613971098930977 0.1872904609819943
 0.2928799461811527 0.1701528848863069
 0.2671892534440182 0.1792072278592459
 0.1843645520484314 0.1950890096278164
 0.3063435246499412 0.2082793902623347
 0.2891108518376543 0.1793496962577072
 0.2945375099776237 0.1711045262896694
 0.2351024940585123 0.1974004769146042
 0.2742228543944145 0.1833709270469324
 0.1830544633906103 0.1875720729614933
 0.2558805295293918 0.18975415039288
 0.2028820748118371 0.2056834375205186
 0.3226167788518183 0.2156710858546814
 0.3380965679401058 0.1775325663875318
 0.3381925742535834 0.2034683475512296
 0.2295727009078506 0.1917609759391899
 0.2860687264941568 0.1990539835560254
 0.239691445070468 0.1670816117859936
 0.1802537454845486 0.2035620431224502



# name: <cell-element>
# type: matrix
# rows: 100
# columns: 2
 0.1119937282105073 0.1167562969957708
 -0.07212961527833869 0.1167562969957708
 0.1540492305702304 0.1167562969957708
 -0.0009201192418240023 0.02839895593068387
 0.1931395389400713 -0.04550807114240646
 0.1480006433653875 0.1960078410091775
 -0.1664868471112846 0.09337422741297058
 0.1434560888264702 0.1571718316502217